node_id,element_id,S11,S22,S33,S12,S13,S23
93,1,-0.0010322316084057093,-0.0063054924830794334,-999.9960327148438,-0.001307923812419176,0.0020723030902445316,-0.003897686256095767
82,1,-0.0010322316084057093,-0.0063054924830794334,-999.9960327148438,-0.001307923812419176,0.0020723030902445316,-0.003897686256095767
81,1,-0.0010322316084057093,-0.0063054924830794334,-999.9960327148438,-0.001307923812419176,0.0020723030902445316,-0.003897686256095767
110,1,-0.0010322316084057093,-0.0063054924830794334,-999.9960327148438,-0.001307923812419176,0.0020723030902445316,-0.003897686256095767
24,1,-0.0010322316084057093,-0.0063054924830794334,-999.9960327148438,-0.001307923812419176,0.0020723030902445316,-0.003897686256095767
13,1,-0.0010322316084057093,-0.0063054924830794334,-999.9960327148438,-0.001307923812419176,0.0020723030902445316,-0.003897686256095767
12,1,-0.0010322316084057093,-0.0063054924830794334,-999.9960327148438,-0.001307923812419176,0.0020723030902445316,-0.003897686256095767
41,1,-0.0010322316084057093,-0.0063054924830794334,-999.9960327148438,-0.001307923812419176,0.0020723030902445316,-0.003897686256095767
110,2,-0.0012357189552858472,-0.005821836180984974,-1000.0009155273438,0.0010466276435181499,-0.0030840719118714333,0.0034975686576217413
81,2,-0.0012357189552858472,-0.005821836180984974,-1000.0009155273438,0.0010466276435181499,-0.0030840719118714333,0.0034975686576217413
90,2,-0.0012357189552858472,-0.005821836180984974,-1000.0009155273438,0.0010466276435181499,-0.0030840719118714333,0.0034975686576217413
95,2,-0.0012357189552858472,-0.005821836180984974,-1000.0009155273438,0.0010466276435181499,-0.0030840719118714333,0.0034975686576217413
41,2,-0.0012357189552858472,-0.005821836180984974,-1000.0009155273438,0.0010466276435181499,-0.0030840719118714333,0.0034975686576217413
12,2,-0.0012357189552858472,-0.005821836180984974,-1000.0009155273438,0.0010466276435181499,-0.0030840719118714333,0.0034975686576217413
21,2,-0.0012357189552858472,-0.005821836180984974,-1000.0009155273438,0.0010466276435181499,-0.0030840719118714333,0.0034975686576217413
26,2,-0.0012357189552858472,-0.005821836180984974,-1000.0009155273438,0.0010466276435181499,-0.0030840719118714333,0.0034975686576217413
91,3,-0.0019386584172025323,0.0005777492187917233,-1000.0054321289062,0.002498247427865863,-0.012008539400994778,0.0006855197134427726
111,3,-0.0019386584172025323,0.0005777492187917233,-1000.0054321289062,0.002498247427865863,-0.012008539400994778,0.0006855197134427726
94,3,-0.0019386584172025323,0.0005777492187917233,-1000.0054321289062,0.002498247427865863,-0.012008539400994778,0.0006855197134427726
84,3,-0.0019386584172025323,0.0005777492187917233,-1000.0054321289062,0.002498247427865863,-0.012008539400994778,0.0006855197134427726
22,3,-0.0019386584172025323,0.0005777492187917233,-1000.0054321289062,0.002498247427865863,-0.012008539400994778,0.0006855197134427726
42,3,-0.0019386584172025323,0.0005777492187917233,-1000.0054321289062,0.002498247427865863,-0.012008539400994778,0.0006855197134427726
25,3,-0.0019386584172025323,0.0005777492187917233,-1000.0054321289062,0.002498247427865863,-0.012008539400994778,0.0006855197134427726
15,3,-0.0019386584172025323,0.0005777492187917233,-1000.0054321289062,0.002498247427865863,-0.012008539400994778,0.0006855197134427726
82,4,-0.0011168683413416147,-0.007847614586353302,-1000.0050659179688,0.0022904714569449425,-0.008320149034261703,0.004974111914634705
93,4,-0.0011168683413416147,-0.007847614586353302,-1000.0050659179688,0.0022904714569449425,-0.008320149034261703,0.004974111914634705
92,4,-0.0011168683413416147,-0.007847614586353302,-1000.0050659179688,0.0022904714569449425,-0.008320149034261703,0.004974111914634705
83,4,-0.0011168683413416147,-0.007847614586353302,-1000.0050659179688,0.0022904714569449425,-0.008320149034261703,0.004974111914634705
13,4,-0.0011168683413416147,-0.007847614586353302,-1000.0050659179688,0.0022904714569449425,-0.008320149034261703,0.004974111914634705
24,4,-0.0011168683413416147,-0.007847614586353302,-1000.0050659179688,0.0022904714569449425,-0.008320149034261703,0.004974111914634705
23,4,-0.0011168683413416147,-0.007847614586353302,-1000.0050659179688,0.0022904714569449425,-0.008320149034261703,0.004974111914634705
14,4,-0.0011168683413416147,-0.007847614586353302,-1000.0050659179688,0.0022904714569449425,-0.008320149034261703,0.004974111914634705
121,5,-0.00010975435725413263,1.103800627788587e-06,-999.9931030273438,-0.0029160603880882263,-0.011186579242348671,0.0009567811503075063
134,5,-0.00010975435725413263,1.103800627788587e-06,-999.9931030273438,-0.0029160603880882263,-0.011186579242348671,0.0009567811503075063
113,5,-0.00010975435725413263,1.103800627788587e-06,-999.9931030273438,-0.0029160603880882263,-0.011186579242348671,0.0009567811503075063
124,5,-0.00010975435725413263,1.103800627788587e-06,-999.9931030273438,-0.0029160603880882263,-0.011186579242348671,0.0009567811503075063
52,5,-0.00010975435725413263,1.103800627788587e-06,-999.9931030273438,-0.0029160603880882263,-0.011186579242348671,0.0009567811503075063
65,5,-0.00010975435725413263,1.103800627788587e-06,-999.9931030273438,-0.0029160603880882263,-0.011186579242348671,0.0009567811503075063
44,5,-0.00010975435725413263,1.103800627788587e-06,-999.9931030273438,-0.0029160603880882263,-0.011186579242348671,0.0009567811503075063
55,5,-0.00010975435725413263,1.103800627788587e-06,-999.9931030273438,-0.0029160603880882263,-0.011186579242348671,0.0009567811503075063
137,6,0.01216336339712143,0.01258992962539196,-999.9926147460938,0.0009887597989290953,-0.00624766806140542,0.0008378244820050895
115,6,0.01216336339712143,0.01258992962539196,-999.9926147460938,0.0009887597989290953,-0.00624766806140542,0.0008378244820050895
101,6,0.01216336339712143,0.01258992962539196,-999.9926147460938,0.0009887597989290953,-0.00624766806140542,0.0008378244820050895
102,6,0.01216336339712143,0.01258992962539196,-999.9926147460938,0.0009887597989290953,-0.00624766806140542,0.0008378244820050895
68,6,0.01216336339712143,0.01258992962539196,-999.9926147460938,0.0009887597989290953,-0.00624766806140542,0.0008378244820050895
46,6,0.01216336339712143,0.01258992962539196,-999.9926147460938,0.0009887597989290953,-0.00624766806140542,0.0008378244820050895
32,6,0.01216336339712143,0.01258992962539196,-999.9926147460938,0.0009887597989290953,-0.00624766806140542,0.0008378244820050895
33,6,0.01216336339712143,0.01258992962539196,-999.9926147460938,0.0009887597989290953,-0.00624766806140542,0.0008378244820050895
125,7,0.007340628188103437,0.007184377871453762,-999.9913940429688,-0.0005859758821316063,-0.00969100184738636,-0.008302675560116768
122,7,0.007340628188103437,0.007184377871453762,-999.9913940429688,-0.0005859758821316063,-0.00969100184738636,-0.008302675560116768
121,7,0.007340628188103437,0.007184377871453762,-999.9913940429688,-0.0005859758821316063,-0.00969100184738636,-0.008302675560116768
124,7,0.007340628188103437,0.007184377871453762,-999.9913940429688,-0.0005859758821316063,-0.00969100184738636,-0.008302675560116768
56,7,0.007340628188103437,0.007184377871453762,-999.9913940429688,-0.0005859758821316063,-0.00969100184738636,-0.008302675560116768
53,7,0.007340628188103437,0.007184377871453762,-999.9913940429688,-0.0005859758821316063,-0.00969100184738636,-0.008302675560116768
52,7,0.007340628188103437,0.007184377871453762,-999.9913940429688,-0.0005859758821316063,-0.00969100184738636,-0.008302675560116768
55,7,0.007340628188103437,0.007184377871453762,-999.9913940429688,-0.0005859758821316063,-0.00969100184738636,-0.008302675560116768
116,8,-0.009924988262355328,-0.010662157088518143,-1000.0040283203125,-0.00352477072738111,0.014303200878202915,0.0036404924467206
133,8,-0.009924988262355328,-0.010662157088518143,-1000.0040283203125,-0.00352477072738111,0.014303200878202915,0.0036404924467206
121,8,-0.009924988262355328,-0.010662157088518143,-1000.0040283203125,-0.00352477072738111,0.014303200878202915,0.0036404924467206
122,8,-0.009924988262355328,-0.010662157088518143,-1000.0040283203125,-0.00352477072738111,0.014303200878202915,0.0036404924467206
47,8,-0.009924988262355328,-0.010662157088518143,-1000.0040283203125,-0.00352477072738111,0.014303200878202915,0.0036404924467206
64,8,-0.009924988262355328,-0.010662157088518143,-1000.0040283203125,-0.00352477072738111,0.014303200878202915,0.0036404924467206
52,8,-0.009924988262355328,-0.010662157088518143,-1000.0040283203125,-0.00352477072738111,0.014303200878202915,0.0036404924467206
53,8,-0.009924988262355328,-0.010662157088518143,-1000.0040283203125,-0.00352477072738111,0.014303200878202915,0.0036404924467206
96,9,0.003016403876245022,0.0035653095692396164,-999.998046875,0.0034982776269316673,0.0050331042148172855,-0.0057634529657661915
109,9,0.003016403876245022,0.0035653095692396164,-999.998046875,0.0034982776269316673,0.0050331042148172855,-0.0057634529657661915
134,9,0.003016403876245022,0.0035653095692396164,-999.998046875,0.0034982776269316673,0.0050331042148172855,-0.0057634529657661915
121,9,0.003016403876245022,0.0035653095692396164,-999.998046875,0.0034982776269316673,0.0050331042148172855,-0.0057634529657661915
27,9,0.003016403876245022,0.0035653095692396164,-999.998046875,0.0034982776269316673,0.0050331042148172855,-0.0057634529657661915
40,9,0.003016403876245022,0.0035653095692396164,-999.998046875,0.0034982776269316673,0.0050331042148172855,-0.0057634529657661915
65,9,0.003016403876245022,0.0035653095692396164,-999.998046875,0.0034982776269316673,0.0050331042148172855,-0.0057634529657661915
52,9,0.003016403876245022,0.0035653095692396164,-999.998046875,0.0034982776269316673,0.0050331042148172855,-0.0057634529657661915
136,10,0.025159845128655434,0.011632232926785946,-999.9601440429688,0.003068572608754039,0.0226749200373888,0.019375616684556007
120,10,0.025159845128655434,0.011632232926785946,-999.9601440429688,0.003068572608754039,0.0226749200373888,0.019375616684556007
100,10,0.025159845128655434,0.011632232926785946,-999.9601440429688,0.003068572608754039,0.0226749200373888,0.019375616684556007
108,10,0.025159845128655434,0.011632232926785946,-999.9601440429688,0.003068572608754039,0.0226749200373888,0.019375616684556007
67,10,0.025159845128655434,0.011632232926785946,-999.9601440429688,0.003068572608754039,0.0226749200373888,0.019375616684556007
51,10,0.025159845128655434,0.011632232926785946,-999.9601440429688,0.003068572608754039,0.0226749200373888,0.019375616684556007
31,10,0.025159845128655434,0.011632232926785946,-999.9601440429688,0.003068572608754039,0.0226749200373888,0.019375616684556007
39,10,0.025159845128655434,0.011632232926785946,-999.9601440429688,0.003068572608754039,0.0226749200373888,0.019375616684556007
130,11,-0.008006341755390167,-0.007172539830207825,-1000.019775390625,-0.0022572206798940897,-0.023363374173641205,0.00978805124759674
125,11,-0.008006341755390167,-0.007172539830207825,-1000.019775390625,-0.0022572206798940897,-0.023363374173641205,0.00978805124759674
104,11,-0.008006341755390167,-0.007172539830207825,-1000.019775390625,-0.0022572206798940897,-0.023363374173641205,0.00978805124759674
118,11,-0.008006341755390167,-0.007172539830207825,-1000.019775390625,-0.0022572206798940897,-0.023363374173641205,0.00978805124759674
61,11,-0.008006341755390167,-0.007172539830207825,-1000.019775390625,-0.0022572206798940897,-0.023363374173641205,0.00978805124759674
56,11,-0.008006341755390167,-0.007172539830207825,-1000.019775390625,-0.0022572206798940897,-0.023363374173641205,0.00978805124759674
35,11,-0.008006341755390167,-0.007172539830207825,-1000.019775390625,-0.0022572206798940897,-0.023363374173641205,0.00978805124759674
49,11,-0.008006341755390167,-0.007172539830207825,-1000.019775390625,-0.0022572206798940897,-0.023363374173641205,0.00978805124759674
104,12,0.008221677504479885,0.005356488283723593,-999.9983520507812,0.004417508374899626,-0.0030954605899751186,0.013790447264909744
119,12,0.008221677504479885,0.005356488283723593,-999.9983520507812,0.004417508374899626,-0.0030954605899751186,0.013790447264909744
127,12,0.008221677504479885,0.005356488283723593,-999.9983520507812,0.004417508374899626,-0.0030954605899751186,0.013790447264909744
128,12,0.008221677504479885,0.005356488283723593,-999.9983520507812,0.004417508374899626,-0.0030954605899751186,0.013790447264909744
35,12,0.008221677504479885,0.005356488283723593,-999.9983520507812,0.004417508374899626,-0.0030954605899751186,0.013790447264909744
50,12,0.008221677504479885,0.005356488283723593,-999.9983520507812,0.004417508374899626,-0.0030954605899751186,0.013790447264909744
58,12,0.008221677504479885,0.005356488283723593,-999.9983520507812,0.004417508374899626,-0.0030954605899751186,0.013790447264909744
59,12,0.008221677504479885,0.005356488283723593,-999.9983520507812,0.004417508374899626,-0.0030954605899751186,0.013790447264909744
111,13,0.0022660931572318077,-0.0014230766100808978,-999.9931640625,-0.008376041427254677,0.004156684037297964,-0.006242792122066021
92,13,0.0022660931572318077,-0.0014230766100808978,-999.9931640625,-0.008376041427254677,0.004156684037297964,-0.006242792122066021
131,13,0.0022660931572318077,-0.0014230766100808978,-999.9931640625,-0.008376041427254677,0.004156684037297964,-0.006242792122066021
114,13,0.0022660931572318077,-0.0014230766100808978,-999.9931640625,-0.008376041427254677,0.004156684037297964,-0.006242792122066021
42,13,0.0022660931572318077,-0.0014230766100808978,-999.9931640625,-0.008376041427254677,0.004156684037297964,-0.006242792122066021
23,13,0.0022660931572318077,-0.0014230766100808978,-999.9931640625,-0.008376041427254677,0.004156684037297964,-0.006242792122066021
62,13,0.0022660931572318077,-0.0014230766100808978,-999.9931640625,-0.008376041427254677,0.004156684037297964,-0.006242792122066021
45,13,0.0022660931572318077,-0.0014230766100808978,-999.9931640625,-0.008376041427254677,0.004156684037297964,-0.006242792122066021
138,14,0.0006323990528471768,0.009464319795370102,-1000.0110473632812,0.0006563107017427683,0.004006842151284218,0.010976971127092838
94,14,0.0006323990528471768,0.009464319795370102,-1000.0110473632812,0.0006563107017427683,0.004006842151284218,0.010976971127092838
111,14,0.0006323990528471768,0.009464319795370102,-1000.0110473632812,0.0006563107017427683,0.004006842151284218,0.010976971127092838
114,14,0.0006323990528471768,0.009464319795370102,-1000.0110473632812,0.0006563107017427683,0.004006842151284218,0.010976971127092838
69,14,0.0006323990528471768,0.009464319795370102,-1000.0110473632812,0.0006563107017427683,0.004006842151284218,0.010976971127092838
25,14,0.0006323990528471768,0.009464319795370102,-1000.0110473632812,0.0006563107017427683,0.004006842151284218,0.010976971127092838
42,14,0.0006323990528471768,0.009464319795370102,-1000.0110473632812,0.0006563107017427683,0.004006842151284218,0.010976971127092838
45,14,0.0006323990528471768,0.009464319795370102,-1000.0110473632812,0.0006563107017427683,0.004006842151284218,0.010976971127092838
98,15,0.014067051000893116,0.007040973752737045,-999.9690551757812,0.002087830798700452,0.02222708985209465,-0.0025509297847747803
99,15,0.014067051000893116,0.007040973752737045,-999.9690551757812,0.002087830798700452,0.02222708985209465,-0.0025509297847747803
135,15,0.014067051000893116,0.007040973752737045,-999.9690551757812,0.002087830798700452,0.02222708985209465,-0.0025509297847747803
113,15,0.014067051000893116,0.007040973752737045,-999.9690551757812,0.002087830798700452,0.02222708985209465,-0.0025509297847747803
29,15,0.014067051000893116,0.007040973752737045,-999.9690551757812,0.002087830798700452,0.02222708985209465,-0.0025509297847747803
30,15,0.014067051000893116,0.007040973752737045,-999.9690551757812,0.002087830798700452,0.02222708985209465,-0.0025509297847747803
66,15,0.014067051000893116,0.007040973752737045,-999.9690551757812,0.002087830798700452,0.02222708985209465,-0.0025509297847747803
44,15,0.014067051000893116,0.007040973752737045,-999.9690551757812,0.002087830798700452,0.02222708985209465,-0.0025509297847747803
83,16,-0.0013452121056616306,-0.007181689143180847,-999.9935913085938,0.0016969803255051374,0.007336454000324011,-0.005869820713996887
92,16,-0.0013452121056616306,-0.007181689143180847,-999.9935913085938,0.0016969803255051374,0.007336454000324011,-0.005869820713996887
111,16,-0.0013452121056616306,-0.007181689143180847,-999.9935913085938,0.0016969803255051374,0.007336454000324011,-0.005869820713996887
91,16,-0.0013452121056616306,-0.007181689143180847,-999.9935913085938,0.0016969803255051374,0.007336454000324011,-0.005869820713996887
14,16,-0.0013452121056616306,-0.007181689143180847,-999.9935913085938,0.0016969803255051374,0.007336454000324011,-0.005869820713996887
23,16,-0.0013452121056616306,-0.007181689143180847,-999.9935913085938,0.0016969803255051374,0.007336454000324011,-0.005869820713996887
42,16,-0.0013452121056616306,-0.007181689143180847,-999.9935913085938,0.0016969803255051374,0.007336454000324011,-0.005869820713996887
22,16,-0.0013452121056616306,-0.007181689143180847,-999.9935913085938,0.0016969803255051374,0.007336454000324011,-0.005869820713996887
80,17,-0.0025255822110921144,-0.009551051072776318,-999.9995727539062,-0.0010540421353653073,0.0037586516700685024,0.0006681110244244337
126,17,-0.0025255822110921144,-0.009551051072776318,-999.9995727539062,-0.0010540421353653073,0.0037586516700685024,0.0006681110244244337
95,17,-0.0025255822110921144,-0.009551051072776318,-999.9995727539062,-0.0010540421353653073,0.0037586516700685024,0.0006681110244244337
90,17,-0.0025255822110921144,-0.009551051072776318,-999.9995727539062,-0.0010540421353653073,0.0037586516700685024,0.0006681110244244337
11,17,-0.0025255822110921144,-0.009551051072776318,-999.9995727539062,-0.0010540421353653073,0.0037586516700685024,0.0006681110244244337
57,17,-0.0025255822110921144,-0.009551051072776318,-999.9995727539062,-0.0010540421353653073,0.0037586516700685024,0.0006681110244244337
26,17,-0.0025255822110921144,-0.009551051072776318,-999.9995727539062,-0.0010540421353653073,0.0037586516700685024,0.0006681110244244337
21,17,-0.0025255822110921144,-0.009551051072776318,-999.9995727539062,-0.0010540421353653073,0.0037586516700685024,0.0006681110244244337
96,18,-0.0035611228086054325,0.00072181795258075,-999.998291015625,-0.0018468981143087149,0.0009849716443568468,0.0015804450958967209
79,18,-0.0035611228086054325,0.00072181795258075,-999.998291015625,-0.0018468981143087149,0.0009849716443568468,0.0015804450958967209
89,18,-0.0035611228086054325,0.00072181795258075,-999.998291015625,-0.0018468981143087149,0.0009849716443568468,0.0015804450958967209
109,18,-0.0035611228086054325,0.00072181795258075,-999.998291015625,-0.0018468981143087149,0.0009849716443568468,0.0015804450958967209
27,18,-0.0035611228086054325,0.00072181795258075,-999.998291015625,-0.0018468981143087149,0.0009849716443568468,0.0015804450958967209
10,18,-0.0035611228086054325,0.00072181795258075,-999.998291015625,-0.0018468981143087149,0.0009849716443568468,0.0015804450958967209
20,18,-0.0035611228086054325,0.00072181795258075,-999.998291015625,-0.0018468981143087149,0.0009849716443568468,0.0015804450958967209
40,18,-0.0035611228086054325,0.00072181795258075,-999.998291015625,-0.0018468981143087149,0.0009849716443568468,0.0015804450958967209
97,19,0.0028556936886161566,-0.0011190271470695734,-999.9935913085938,-0.0017497582593932748,0.013804972171783447,-0.0006047418573871255
85,19,0.0028556936886161566,-0.0011190271470695734,-999.9935913085938,-0.0017497582593932748,0.013804972171783447,-0.0006047418573871255
84,19,0.0028556936886161566,-0.0011190271470695734,-999.9935913085938,-0.0017497582593932748,0.013804972171783447,-0.0006047418573871255
94,19,0.0028556936886161566,-0.0011190271470695734,-999.9935913085938,-0.0017497582593932748,0.013804972171783447,-0.0006047418573871255
28,19,0.0028556936886161566,-0.0011190271470695734,-999.9935913085938,-0.0017497582593932748,0.013804972171783447,-0.0006047418573871255
16,19,0.0028556936886161566,-0.0011190271470695734,-999.9935913085938,-0.0017497582593932748,0.013804972171783447,-0.0006047418573871255
15,19,0.0028556936886161566,-0.0011190271470695734,-999.9935913085938,-0.0017497582593932748,0.013804972171783447,-0.0006047418573871255
25,19,0.0028556936886161566,-0.0011190271470695734,-999.9935913085938,-0.0017497582593932748,0.013804972171783447,-0.0006047418573871255
109,20,-0.0009543622727505863,-0.00013799731095787138,-999.998291015625,0.0008650788804516196,-0.0023451377637684345,-0.0006130848196335137
89,20,-0.0009543622727505863,-0.00013799731095787138,-999.998291015625,0.0008650788804516196,-0.0023451377637684345,-0.0006130848196335137
78,20,-0.0009543622727505863,-0.00013799731095787138,-999.998291015625,0.0008650788804516196,-0.0023451377637684345,-0.0006130848196335137
98,20,-0.0009543622727505863,-0.00013799731095787138,-999.998291015625,0.0008650788804516196,-0.0023451377637684345,-0.0006130848196335137
40,20,-0.0009543622727505863,-0.00013799731095787138,-999.998291015625,0.0008650788804516196,-0.0023451377637684345,-0.0006130848196335137
20,20,-0.0009543622727505863,-0.00013799731095787138,-999.998291015625,0.0008650788804516196,-0.0023451377637684345,-0.0006130848196335137
9,20,-0.0009543622727505863,-0.00013799731095787138,-999.998291015625,0.0008650788804516196,-0.0023451377637684345,-0.0006130848196335137
29,20,-0.0009543622727505863,-0.00013799731095787138,-999.998291015625,0.0008650788804516196,-0.0023451377637684345,-0.0006130848196335137
133,21,0.0030115977860987186,0.004000798799097538,-1000.0033569335938,0.004466874059289694,0.005831738002598286,0.007724076043814421
126,21,0.0030115977860987186,0.004000798799097538,-1000.0033569335938,0.004466874059289694,0.005831738002598286,0.007724076043814421
96,21,0.0030115977860987186,0.004000798799097538,-1000.0033569335938,0.004466874059289694,0.005831738002598286,0.007724076043814421
121,21,0.0030115977860987186,0.004000798799097538,-1000.0033569335938,0.004466874059289694,0.005831738002598286,0.007724076043814421
64,21,0.0030115977860987186,0.004000798799097538,-1000.0033569335938,0.004466874059289694,0.005831738002598286,0.007724076043814421
57,21,0.0030115977860987186,0.004000798799097538,-1000.0033569335938,0.004466874059289694,0.005831738002598286,0.007724076043814421
27,21,0.0030115977860987186,0.004000798799097538,-1000.0033569335938,0.004466874059289694,0.005831738002598286,0.007724076043814421
52,21,0.0030115977860987186,0.004000798799097538,-1000.0033569335938,0.004466874059289694,0.005831738002598286,0.007724076043814421
98,22,-0.0025780664291232824,0.0015652163419872522,-1000.0031127929688,0.0008763151126913726,0.0014204956823959947,0.0014092017663642764
78,22,-0.0025780664291232824,0.0015652163419872522,-1000.0031127929688,0.0008763151126913726,0.0014204956823959947,0.0014092017663642764
77,22,-0.0025780664291232824,0.0015652163419872522,-1000.0031127929688,0.0008763151126913726,0.0014204956823959947,0.0014092017663642764
99,22,-0.0025780664291232824,0.0015652163419872522,-1000.0031127929688,0.0008763151126913726,0.0014204956823959947,0.0014092017663642764
29,22,-0.0025780664291232824,0.0015652163419872522,-1000.0031127929688,0.0008763151126913726,0.0014204956823959947,0.0014092017663642764
9,22,-0.0025780664291232824,0.0015652163419872522,-1000.0031127929688,0.0008763151126913726,0.0014204956823959947,0.0014092017663642764
8,22,-0.0025780664291232824,0.0015652163419872522,-1000.0031127929688,0.0008763151126913726,0.0014204956823959947,0.0014092017663642764
30,22,-0.0025780664291232824,0.0015652163419872522,-1000.0031127929688,0.0008763151126913726,0.0014204956823959947,0.0014092017663642764
99,23,-0.0059634363278746605,-0.0027723517268896103,-999.9902954101562,-0.0004391248512547463,-0.001379338325932622,0.0012185549130663276
77,23,-0.0059634363278746605,-0.0027723517268896103,-999.9902954101562,-0.0004391248512547463,-0.001379338325932622,0.0012185549130663276
76,23,-0.0059634363278746605,-0.0027723517268896103,-999.9902954101562,-0.0004391248512547463,-0.001379338325932622,0.0012185549130663276
100,23,-0.0059634363278746605,-0.0027723517268896103,-999.9902954101562,-0.0004391248512547463,-0.001379338325932622,0.0012185549130663276
30,23,-0.0059634363278746605,-0.0027723517268896103,-999.9902954101562,-0.0004391248512547463,-0.001379338325932622,0.0012185549130663276
8,23,-0.0059634363278746605,-0.0027723517268896103,-999.9902954101562,-0.0004391248512547463,-0.001379338325932622,0.0012185549130663276
7,23,-0.0059634363278746605,-0.0027723517268896103,-999.9902954101562,-0.0004391248512547463,-0.001379338325932622,0.0012185549130663276
31,23,-0.0059634363278746605,-0.0027723517268896103,-999.9902954101562,-0.0004391248512547463,-0.001379338325932622,0.0012185549130663276
130,24,0.003733032615855336,-0.004833351820707321,-999.989501953125,0.001516392920166254,-0.0012577843153849244,-0.001097481232136488
118,24,0.003733032615855336,-0.004833351820707321,-999.989501953125,0.001516392920166254,-0.0012577843153849244,-0.001097481232136488
129,24,0.003733032615855336,-0.004833351820707321,-999.989501953125,0.001516392920166254,-0.0012577843153849244,-0.001097481232136488
123,24,0.003733032615855336,-0.004833351820707321,-999.989501953125,0.001516392920166254,-0.0012577843153849244,-0.001097481232136488
61,24,0.003733032615855336,-0.004833351820707321,-999.989501953125,0.001516392920166254,-0.0012577843153849244,-0.001097481232136488
49,24,0.003733032615855336,-0.004833351820707321,-999.989501953125,0.001516392920166254,-0.0012577843153849244,-0.001097481232136488
60,24,0.003733032615855336,-0.004833351820707321,-999.989501953125,0.001516392920166254,-0.0012577843153849244,-0.001097481232136488
54,24,0.003733032615855336,-0.004833351820707321,-999.989501953125,0.001516392920166254,-0.0012577843153849244,-0.001097481232136488
85,25,-0.004561691544950008,-0.0004412309208419174,-1000.0082397460938,-0.003255232470110059,-0.011251076124608517,0.0021698912605643272
97,25,-0.004561691544950008,-0.0004412309208419174,-1000.0082397460938,-0.003255232470110059,-0.011251076124608517,0.0021698912605643272
105,25,-0.004561691544950008,-0.0004412309208419174,-1000.0082397460938,-0.003255232470110059,-0.011251076124608517,0.0021698912605643272
70,25,-0.004561691544950008,-0.0004412309208419174,-1000.0082397460938,-0.003255232470110059,-0.011251076124608517,0.0021698912605643272
16,25,-0.004561691544950008,-0.0004412309208419174,-1000.0082397460938,-0.003255232470110059,-0.011251076124608517,0.0021698912605643272
28,25,-0.004561691544950008,-0.0004412309208419174,-1000.0082397460938,-0.003255232470110059,-0.011251076124608517,0.0021698912605643272
36,25,-0.004561691544950008,-0.0004412309208419174,-1000.0082397460938,-0.003255232470110059,-0.011251076124608517,0.0021698912605643272
1,25,-0.004561691544950008,-0.0004412309208419174,-1000.0082397460938,-0.003255232470110059,-0.011251076124608517,0.0021698912605643272
100,26,-0.005798532161861658,0.0015727741410955787,-1000.0115966796875,-1.428454925189726e-05,0.003106360789388418,-0.0075770094990730286
76,26,-0.005798532161861658,0.0015727741410955787,-1000.0115966796875,-1.428454925189726e-05,0.003106360789388418,-0.0075770094990730286
88,26,-0.005798532161861658,0.0015727741410955787,-1000.0115966796875,-1.428454925189726e-05,0.003106360789388418,-0.0075770094990730286
108,26,-0.005798532161861658,0.0015727741410955787,-1000.0115966796875,-1.428454925189726e-05,0.003106360789388418,-0.0075770094990730286
31,26,-0.005798532161861658,0.0015727741410955787,-1000.0115966796875,-1.428454925189726e-05,0.003106360789388418,-0.0075770094990730286
7,26,-0.005798532161861658,0.0015727741410955787,-1000.0115966796875,-1.428454925189726e-05,0.003106360789388418,-0.0075770094990730286
19,26,-0.005798532161861658,0.0015727741410955787,-1000.0115966796875,-1.428454925189726e-05,0.003106360789388418,-0.0075770094990730286
39,26,-0.005798532161861658,0.0015727741410955787,-1000.0115966796875,-1.428454925189726e-05,0.003106360789388418,-0.0075770094990730286
108,27,-0.0027145857457071543,-0.0019067327957600355,-999.9901733398438,0.00016186556604225188,-0.005100510083138943,0.007806026376783848
88,27,-0.0027145857457071543,-0.0019067327957600355,-999.9901733398438,0.00016186556604225188,-0.005100510083138943,0.007806026376783848
75,27,-0.0027145857457071543,-0.0019067327957600355,-999.9901733398438,0.00016186556604225188,-0.005100510083138943,0.007806026376783848
101,27,-0.0027145857457071543,-0.0019067327957600355,-999.9901733398438,0.00016186556604225188,-0.005100510083138943,0.007806026376783848
39,27,-0.0027145857457071543,-0.0019067327957600355,-999.9901733398438,0.00016186556604225188,-0.005100510083138943,0.007806026376783848
19,27,-0.0027145857457071543,-0.0019067327957600355,-999.9901733398438,0.00016186556604225188,-0.005100510083138943,0.007806026376783848
6,27,-0.0027145857457071543,-0.0019067327957600355,-999.9901733398438,0.00016186556604225188,-0.005100510083138943,0.007806026376783848
32,27,-0.0027145857457071543,-0.0019067327957600355,-999.9901733398438,0.00016186556604225188,-0.005100510083138943,0.007806026376783848
101,28,-0.003783072344958782,-0.008535395376384258,-1000.0094604492188,0.003760053776204586,0.006726906169205904,-0.0057333968579769135
75,28,-0.003783072344958782,-0.008535395376384258,-1000.0094604492188,0.003760053776204586,0.006726906169205904,-0.0057333968579769135
74,28,-0.003783072344958782,-0.008535395376384258,-1000.0094604492188,0.003760053776204586,0.006726906169205904,-0.0057333968579769135
102,28,-0.003783072344958782,-0.008535395376384258,-1000.0094604492188,0.003760053776204586,0.006726906169205904,-0.0057333968579769135
32,28,-0.003783072344958782,-0.008535395376384258,-1000.0094604492188,0.003760053776204586,0.006726906169205904,-0.0057333968579769135
6,28,-0.003783072344958782,-0.008535395376384258,-1000.0094604492188,0.003760053776204586,0.006726906169205904,-0.0057333968579769135
5,28,-0.003783072344958782,-0.008535395376384258,-1000.0094604492188,0.003760053776204586,0.006726906169205904,-0.0057333968579769135
33,28,-0.003783072344958782,-0.008535395376384258,-1000.0094604492188,0.003760053776204586,0.006726906169205904,-0.0057333968579769135
102,29,-0.00015087118663359433,-0.0012551009422168136,-999.9918212890625,-0.0013101279037073255,-0.0027472737710922956,0.003696143627166748
74,29,-0.00015087118663359433,-0.0012551009422168136,-999.9918212890625,-0.0013101279037073255,-0.0027472737710922956,0.003696143627166748
87,29,-0.00015087118663359433,-0.0012551009422168136,-999.9918212890625,-0.0013101279037073255,-0.0027472737710922956,0.003696143627166748
107,29,-0.00015087118663359433,-0.0012551009422168136,-999.9918212890625,-0.0013101279037073255,-0.0027472737710922956,0.003696143627166748
33,29,-0.00015087118663359433,-0.0012551009422168136,-999.9918212890625,-0.0013101279037073255,-0.0027472737710922956,0.003696143627166748
5,29,-0.00015087118663359433,-0.0012551009422168136,-999.9918212890625,-0.0013101279037073255,-0.0027472737710922956,0.003696143627166748
18,29,-0.00015087118663359433,-0.0012551009422168136,-999.9918212890625,-0.0013101279037073255,-0.0027472737710922956,0.003696143627166748
38,29,-0.00015087118663359433,-0.0012551009422168136,-999.9918212890625,-0.0013101279037073255,-0.0027472737710922956,0.003696143627166748
107,30,1.9339879145263694e-05,-0.0034190251026302576,-1000.0060424804688,0.0003230431757401675,-0.0020215408876538277,-0.0037921923212707043
87,30,1.9339879145263694e-05,-0.0034190251026302576,-1000.0060424804688,0.0003230431757401675,-0.0020215408876538277,-0.0037921923212707043
73,30,1.9339879145263694e-05,-0.0034190251026302576,-1000.0060424804688,0.0003230431757401675,-0.0020215408876538277,-0.0037921923212707043
103,30,1.9339879145263694e-05,-0.0034190251026302576,-1000.0060424804688,0.0003230431757401675,-0.0020215408876538277,-0.0037921923212707043
38,30,1.9339879145263694e-05,-0.0034190251026302576,-1000.0060424804688,0.0003230431757401675,-0.0020215408876538277,-0.0037921923212707043
18,30,1.9339879145263694e-05,-0.0034190251026302576,-1000.0060424804688,0.0003230431757401675,-0.0020215408876538277,-0.0037921923212707043
4,30,1.9339879145263694e-05,-0.0034190251026302576,-1000.0060424804688,0.0003230431757401675,-0.0020215408876538277,-0.0037921923212707043
34,30,1.9339879145263694e-05,-0.0034190251026302576,-1000.0060424804688,0.0003230431757401675,-0.0020215408876538277,-0.0037921923212707043
127,31,-0.0071999914944171906,-0.007648687809705734,-999.9937133789062,-0.0032427760306745768,-0.00022353752865456045,-0.005254177842289209
72,31,-0.0071999914944171906,-0.007648687809705734,-999.9937133789062,-0.0032427760306745768,-0.00022353752865456045,-0.005254177842289209
71,31,-0.0071999914944171906,-0.007648687809705734,-999.9937133789062,-0.0032427760306745768,-0.00022353752865456045,-0.005254177842289209
128,31,-0.0071999914944171906,-0.007648687809705734,-999.9937133789062,-0.0032427760306745768,-0.00022353752865456045,-0.005254177842289209
58,31,-0.0071999914944171906,-0.007648687809705734,-999.9937133789062,-0.0032427760306745768,-0.00022353752865456045,-0.005254177842289209
3,31,-0.0071999914944171906,-0.007648687809705734,-999.9937133789062,-0.0032427760306745768,-0.00022353752865456045,-0.005254177842289209
2,31,-0.0071999914944171906,-0.007648687809705734,-999.9937133789062,-0.0032427760306745768,-0.00022353752865456045,-0.005254177842289209
59,31,-0.0071999914944171906,-0.007648687809705734,-999.9937133789062,-0.0032427760306745768,-0.00022353752865456045,-0.005254177842289209
106,32,0.0019692571368068457,-0.0016588220605626702,-999.9918823242188,0.0006095440476201475,0.007035139948129654,0.001794446143321693
86,32,0.0019692571368068457,-0.0016588220605626702,-999.9918823242188,0.0006095440476201475,0.007035139948129654,0.001794446143321693
70,32,0.0019692571368068457,-0.0016588220605626702,-999.9918823242188,0.0006095440476201475,0.007035139948129654,0.001794446143321693
105,32,0.0019692571368068457,-0.0016588220605626702,-999.9918823242188,0.0006095440476201475,0.007035139948129654,0.001794446143321693
37,32,0.0019692571368068457,-0.0016588220605626702,-999.9918823242188,0.0006095440476201475,0.007035139948129654,0.001794446143321693
17,32,0.0019692571368068457,-0.0016588220605626702,-999.9918823242188,0.0006095440476201475,0.007035139948129654,0.001794446143321693
1,32,0.0019692571368068457,-0.0016588220605626702,-999.9918823242188,0.0006095440476201475,0.007035139948129654,0.001794446143321693
36,32,0.0019692571368068457,-0.0016588220605626702,-999.9918823242188,0.0006095440476201475,0.007035139948129654,0.001794446143321693
129,33,0.0070483507588505745,0.015250488184392452,-999.9988403320312,0.002710693748667836,0.00029840561910532415,-0.0177158210426569
105,33,0.0070483507588505745,0.015250488184392452,-999.9988403320312,0.002710693748667836,0.00029840561910532415,-0.0177158210426569
97,33,0.0070483507588505745,0.015250488184392452,-999.9988403320312,0.002710693748667836,0.00029840561910532415,-0.0177158210426569
112,33,0.0070483507588505745,0.015250488184392452,-999.9988403320312,0.002710693748667836,0.00029840561910532415,-0.0177158210426569
60,33,0.0070483507588505745,0.015250488184392452,-999.9988403320312,0.002710693748667836,0.00029840561910532415,-0.0177158210426569
36,33,0.0070483507588505745,0.015250488184392452,-999.9988403320312,0.002710693748667836,0.00029840561910532415,-0.0177158210426569
28,33,0.0070483507588505745,0.015250488184392452,-999.9988403320312,0.002710693748667836,0.00029840561910532415,-0.0177158210426569
43,33,0.0070483507588505745,0.015250488184392452,-999.9988403320312,0.002710693748667836,0.00029840561910532415,-0.0177158210426569
128,34,0.004623472690582275,0.01066183764487505,-999.9921875,0.0005361540825106204,0.011162213049829006,-0.010599660687148571
106,34,0.004623472690582275,0.01066183764487505,-999.9921875,0.0005361540825106204,0.011162213049829006,-0.010599660687148571
118,34,0.004623472690582275,0.01066183764487505,-999.9921875,0.0005361540825106204,0.011162213049829006,-0.010599660687148571
104,34,0.004623472690582275,0.01066183764487505,-999.9921875,0.0005361540825106204,0.011162213049829006,-0.010599660687148571
59,34,0.004623472690582275,0.01066183764487505,-999.9921875,0.0005361540825106204,0.011162213049829006,-0.010599660687148571
37,34,0.004623472690582275,0.01066183764487505,-999.9921875,0.0005361540825106204,0.011162213049829006,-0.010599660687148571
49,34,0.004623472690582275,0.01066183764487505,-999.9921875,0.0005361540825106204,0.011162213049829006,-0.010599660687148571
35,34,0.004623472690582275,0.01066183764487505,-999.9921875,0.0005361540825106204,0.011162213049829006,-0.010599660687148571
103,35,-0.004828989040106535,-0.005080306902527809,-1000.0022583007812,-0.004350756760686636,0.006631188094615936,0.002205947879701853
73,35,-0.004828989040106535,-0.005080306902527809,-1000.0022583007812,-0.004350756760686636,0.006631188094615936,0.002205947879701853
72,35,-0.004828989040106535,-0.005080306902527809,-1000.0022583007812,-0.004350756760686636,0.006631188094615936,0.002205947879701853
127,35,-0.004828989040106535,-0.005080306902527809,-1000.0022583007812,-0.004350756760686636,0.006631188094615936,0.002205947879701853
34,35,-0.004828989040106535,-0.005080306902527809,-1000.0022583007812,-0.004350756760686636,0.006631188094615936,0.002205947879701853
4,35,-0.004828989040106535,-0.005080306902527809,-1000.0022583007812,-0.004350756760686636,0.006631188094615936,0.002205947879701853
3,35,-0.004828989040106535,-0.005080306902527809,-1000.0022583007812,-0.004350756760686636,0.006631188094615936,0.002205947879701853
58,35,-0.004828989040106535,-0.005080306902527809,-1000.0022583007812,-0.004350756760686636,0.006631188094615936,0.002205947879701853
112,36,0.0006143000209704041,-0.011316427029669285,-999.9867553710938,0.001300930161960423,0.003177630016580224,0.0002807104610837996
97,36,0.0006143000209704041,-0.011316427029669285,-999.9867553710938,0.001300930161960423,0.003177630016580224,0.0002807104610837996
94,36,0.0006143000209704041,-0.011316427029669285,-999.9867553710938,0.001300930161960423,0.003177630016580224,0.0002807104610837996
138,36,0.0006143000209704041,-0.011316427029669285,-999.9867553710938,0.001300930161960423,0.003177630016580224,0.0002807104610837996
43,36,0.0006143000209704041,-0.011316427029669285,-999.9867553710938,0.001300930161960423,0.003177630016580224,0.0002807104610837996
28,36,0.0006143000209704041,-0.011316427029669285,-999.9867553710938,0.001300930161960423,0.003177630016580224,0.0002807104610837996
25,36,0.0006143000209704041,-0.011316427029669285,-999.9867553710938,0.001300930161960423,0.003177630016580224,0.0002807104610837996
69,36,0.0006143000209704041,-0.011316427029669285,-999.9867553710938,0.001300930161960423,0.003177630016580224,0.0002807104610837996
123,37,0.0010615342762321234,0.004872906021773815,-1000.001708984375,0.0021002134308218956,0.0011228946968913078,-0.021617591381072998
138,37,0.0010615342762321234,0.004872906021773815,-1000.001708984375,0.0021002134308218956,0.0011228946968913078,-0.021617591381072998
114,37,0.0010615342762321234,0.004872906021773815,-1000.001708984375,0.0021002134308218956,0.0011228946968913078,-0.021617591381072998
122,37,0.0010615342762321234,0.004872906021773815,-1000.001708984375,0.0021002134308218956,0.0011228946968913078,-0.021617591381072998
54,37,0.0010615342762321234,0.004872906021773815,-1000.001708984375,0.0021002134308218956,0.0011228946968913078,-0.021617591381072998
69,37,0.0010615342762321234,0.004872906021773815,-1000.001708984375,0.0021002134308218956,0.0011228946968913078,-0.021617591381072998
45,37,0.0010615342762321234,0.004872906021773815,-1000.001708984375,0.0021002134308218956,0.0011228946968913078,-0.021617591381072998
53,37,0.0010615342762321234,0.004872906021773815,-1000.001708984375,0.0021002134308218956,0.0011228946968913078,-0.021617591381072998
93,38,-0.002442500554025173,0.004540017805993557,-1000.0062255859375,-0.003139787120744586,-0.0018339765956625342,-0.016268368810415268
110,38,-0.002442500554025173,0.004540017805993557,-1000.0062255859375,-0.003139787120744586,-0.0018339765956625342,-0.016268368810415268
132,38,-0.002442500554025173,0.004540017805993557,-1000.0062255859375,-0.003139787120744586,-0.0018339765956625342,-0.016268368810415268
117,38,-0.002442500554025173,0.004540017805993557,-1000.0062255859375,-0.003139787120744586,-0.0018339765956625342,-0.016268368810415268
24,38,-0.002442500554025173,0.004540017805993557,-1000.0062255859375,-0.003139787120744586,-0.0018339765956625342,-0.016268368810415268
41,38,-0.002442500554025173,0.004540017805993557,-1000.0062255859375,-0.003139787120744586,-0.0018339765956625342,-0.016268368810415268
63,38,-0.002442500554025173,0.004540017805993557,-1000.0062255859375,-0.003139787120744586,-0.0018339765956625342,-0.016268368810415268
48,38,-0.002442500554025173,0.004540017805993557,-1000.0062255859375,-0.003139787120744586,-0.0018339765956625342,-0.016268368810415268
117,39,-0.0006693081231787801,-0.018683169037103653,-1000.0223388671875,-0.0002651332470122725,-0.004581160843372345,0.023971717804670334
132,39,-0.0006693081231787801,-0.018683169037103653,-1000.0223388671875,-0.0002651332470122725,-0.004581160843372345,0.023971717804670334
116,39,-0.0006693081231787801,-0.018683169037103653,-1000.0223388671875,-0.0002651332470122725,-0.004581160843372345,0.023971717804670334
122,39,-0.0006693081231787801,-0.018683169037103653,-1000.0223388671875,-0.0002651332470122725,-0.004581160843372345,0.023971717804670334
48,39,-0.0006693081231787801,-0.018683169037103653,-1000.0223388671875,-0.0002651332470122725,-0.004581160843372345,0.023971717804670334
63,39,-0.0006693081231787801,-0.018683169037103653,-1000.0223388671875,-0.0002651332470122725,-0.004581160843372345,0.023971717804670334
47,39,-0.0006693081231787801,-0.018683169037103653,-1000.0223388671875,-0.0002651332470122725,-0.004581160843372345,0.023971717804670334
53,39,-0.0006693081231787801,-0.018683169037103653,-1000.0223388671875,-0.0002651332470122725,-0.004581160843372345,0.023971717804670334
119,40,0.007778760977089405,0.009826394729316235,-999.9990234375,0.003530201967805624,-0.00346366292797029,0.0005791617440991104
107,40,0.007778760977089405,0.009826394729316235,-999.9990234375,0.003530201967805624,-0.00346366292797029,0.0005791617440991104
103,40,0.007778760977089405,0.009826394729316235,-999.9990234375,0.003530201967805624,-0.00346366292797029,0.0005791617440991104
127,40,0.007778760977089405,0.009826394729316235,-999.9990234375,0.003530201967805624,-0.00346366292797029,0.0005791617440991104
50,40,0.007778760977089405,0.009826394729316235,-999.9990234375,0.003530201967805624,-0.00346366292797029,0.0005791617440991104
38,40,0.007778760977089405,0.009826394729316235,-999.9990234375,0.003530201967805624,-0.00346366292797029,0.0005791617440991104
34,40,0.007778760977089405,0.009826394729316235,-999.9990234375,0.003530201967805624,-0.00346366292797029,0.0005791617440991104
58,40,0.007778760977089405,0.009826394729316235,-999.9990234375,0.003530201967805624,-0.00346366292797029,0.0005791617440991104
117,41,-0.006815740372985601,-0.009943556971848011,-1000.0003662109375,0.002631536452099681,-0.021782146766781807,-0.0027576086577028036
122,41,-0.006815740372985601,-0.009943556971848011,-1000.0003662109375,0.002631536452099681,-0.021782146766781807,-0.0027576086577028036
114,41,-0.006815740372985601,-0.009943556971848011,-1000.0003662109375,0.002631536452099681,-0.021782146766781807,-0.0027576086577028036
131,41,-0.006815740372985601,-0.009943556971848011,-1000.0003662109375,0.002631536452099681,-0.021782146766781807,-0.0027576086577028036
48,41,-0.006815740372985601,-0.009943556971848011,-1000.0003662109375,0.002631536452099681,-0.021782146766781807,-0.0027576086577028036
53,41,-0.006815740372985601,-0.009943556971848011,-1000.0003662109375,0.002631536452099681,-0.021782146766781807,-0.0027576086577028036
45,41,-0.006815740372985601,-0.009943556971848011,-1000.0003662109375,0.002631536452099681,-0.021782146766781807,-0.0027576086577028036
62,41,-0.006815740372985601,-0.009943556971848011,-1000.0003662109375,0.002631536452099681,-0.021782146766781807,-0.0027576086577028036
95,42,0.0014672591350972652,0.014571486040949821,-999.999267578125,-0.001563360681757331,-0.01636262983083725,-0.010815056040883064
126,42,0.0014672591350972652,0.014571486040949821,-999.999267578125,-0.001563360681757331,-0.01636262983083725,-0.010815056040883064
133,42,0.0014672591350972652,0.014571486040949821,-999.999267578125,-0.001563360681757331,-0.01636262983083725,-0.010815056040883064
116,42,0.0014672591350972652,0.014571486040949821,-999.999267578125,-0.001563360681757331,-0.01636262983083725,-0.010815056040883064
26,42,0.0014672591350972652,0.014571486040949821,-999.999267578125,-0.001563360681757331,-0.01636262983083725,-0.010815056040883064
57,42,0.0014672591350972652,0.014571486040949821,-999.999267578125,-0.001563360681757331,-0.01636262983083725,-0.010815056040883064
64,42,0.0014672591350972652,0.014571486040949821,-999.999267578125,-0.001563360681757331,-0.01636262983083725,-0.010815056040883064
47,42,0.0014672591350972652,0.014571486040949821,-999.999267578125,-0.001563360681757331,-0.01636262983083725,-0.010815056040883064
137,43,-0.00767556531354785,-0.009146305732429028,-1000.0025634765625,-0.002316866535693407,0.0032853635493665934,-0.018414093181490898
119,43,-0.00767556531354785,-0.009146305732429028,-1000.0025634765625,-0.002316866535693407,0.0032853635493665934,-0.018414093181490898
104,43,-0.00767556531354785,-0.009146305732429028,-1000.0025634765625,-0.002316866535693407,0.0032853635493665934,-0.018414093181490898
125,43,-0.00767556531354785,-0.009146305732429028,-1000.0025634765625,-0.002316866535693407,0.0032853635493665934,-0.018414093181490898
68,43,-0.00767556531354785,-0.009146305732429028,-1000.0025634765625,-0.002316866535693407,0.0032853635493665934,-0.018414093181490898
50,43,-0.00767556531354785,-0.009146305732429028,-1000.0025634765625,-0.002316866535693407,0.0032853635493665934,-0.018414093181490898
35,43,-0.00767556531354785,-0.009146305732429028,-1000.0025634765625,-0.002316866535693407,0.0032853635493665934,-0.018414093181490898
56,43,-0.00767556531354785,-0.009146305732429028,-1000.0025634765625,-0.002316866535693407,0.0032853635493665934,-0.018414093181490898
113,44,-0.012452375143766403,0.004237205255776644,-1000.002685546875,0.0022160348016768694,0.007381349336355925,0.019981658086180687
135,44,-0.012452375143766403,0.004237205255776644,-1000.002685546875,0.0022160348016768694,0.007381349336355925,0.019981658086180687
120,44,-0.012452375143766403,0.004237205255776644,-1000.002685546875,0.0022160348016768694,0.007381349336355925,0.019981658086180687
124,44,-0.012452375143766403,0.004237205255776644,-1000.002685546875,0.0022160348016768694,0.007381349336355925,0.019981658086180687
44,44,-0.012452375143766403,0.004237205255776644,-1000.002685546875,0.0022160348016768694,0.007381349336355925,0.019981658086180687
66,44,-0.012452375143766403,0.004237205255776644,-1000.002685546875,0.0022160348016768694,0.007381349336355925,0.019981658086180687
51,44,-0.012452375143766403,0.004237205255776644,-1000.002685546875,0.0022160348016768694,0.007381349336355925,0.019981658086180687
55,44,-0.012452375143766403,0.004237205255776644,-1000.002685546875,0.0022160348016768694,0.007381349336355925,0.019981658086180687
136,45,-0.006498728878796101,-0.0028815018013119698,-1000.012939453125,-0.005711121018975973,-0.01633930765092373,-0.004515386652201414
108,45,-0.006498728878796101,-0.0028815018013119698,-1000.012939453125,-0.005711121018975973,-0.01633930765092373,-0.004515386652201414
101,45,-0.006498728878796101,-0.0028815018013119698,-1000.012939453125,-0.005711121018975973,-0.01633930765092373,-0.004515386652201414
115,45,-0.006498728878796101,-0.0028815018013119698,-1000.012939453125,-0.005711121018975973,-0.01633930765092373,-0.004515386652201414
67,45,-0.006498728878796101,-0.0028815018013119698,-1000.012939453125,-0.005711121018975973,-0.01633930765092373,-0.004515386652201414
39,45,-0.006498728878796101,-0.0028815018013119698,-1000.012939453125,-0.005711121018975973,-0.01633930765092373,-0.004515386652201414
32,45,-0.006498728878796101,-0.0028815018013119698,-1000.012939453125,-0.005711121018975973,-0.01633930765092373,-0.004515386652201414
46,45,-0.006498728878796101,-0.0028815018013119698,-1000.012939453125,-0.005711121018975973,-0.01633930765092373,-0.004515386652201414
125,46,0.0009703735704533756,-0.0032205143943428993,-1000.007568359375,0.0032681406009942293,0.0030309129506349564,0.017243642359972
124,46,0.0009703735704533756,-0.0032205143943428993,-1000.007568359375,0.0032681406009942293,0.0030309129506349564,0.017243642359972
115,46,0.0009703735704533756,-0.0032205143943428993,-1000.007568359375,0.0032681406009942293,0.0030309129506349564,0.017243642359972
137,46,0.0009703735704533756,-0.0032205143943428993,-1000.007568359375,0.0032681406009942293,0.0030309129506349564,0.017243642359972
56,46,0.0009703735704533756,-0.0032205143943428993,-1000.007568359375,0.0032681406009942293,0.0030309129506349564,0.017243642359972
55,46,0.0009703735704533756,-0.0032205143943428993,-1000.007568359375,0.0032681406009942293,0.0030309129506349564,0.017243642359972
46,46,0.0009703735704533756,-0.0032205143943428993,-1000.007568359375,0.0032681406009942293,0.0030309129506349564,0.017243642359972
68,46,0.0009703735704533756,-0.0032205143943428993,-1000.007568359375,0.0032681406009942293,0.0030309129506349564,0.017243642359972
125,47,0.004381451290100813,0.009827329777181149,-999.982421875,0.0008145683677867055,0.025265691801905632,0.011794541962444782
130,47,0.004381451290100813,0.009827329777181149,-999.982421875,0.0008145683677867055,0.025265691801905632,0.011794541962444782
123,47,0.004381451290100813,0.009827329777181149,-999.982421875,0.0008145683677867055,0.025265691801905632,0.011794541962444782
122,47,0.004381451290100813,0.009827329777181149,-999.982421875,0.0008145683677867055,0.025265691801905632,0.011794541962444782
56,47,0.004381451290100813,0.009827329777181149,-999.982421875,0.0008145683677867055,0.025265691801905632,0.011794541962444782
61,47,0.004381451290100813,0.009827329777181149,-999.982421875,0.0008145683677867055,0.025265691801905632,0.011794541962444782
54,47,0.004381451290100813,0.009827329777181149,-999.982421875,0.0008145683677867055,0.025265691801905632,0.011794541962444782
53,47,0.004381451290100813,0.009827329777181149,-999.982421875,0.0008145683677867055,0.025265691801905632,0.011794541962444782
115,48,-0.009842565283179283,-0.009866047650575638,-1000.0029296875,-0.0018497027922421694,0.012561257928609848,-0.02881833352148533
124,48,-0.009842565283179283,-0.009866047650575638,-1000.0029296875,-0.0018497027922421694,0.012561257928609848,-0.02881833352148533
120,48,-0.009842565283179283,-0.009866047650575638,-1000.0029296875,-0.0018497027922421694,0.012561257928609848,-0.02881833352148533
136,48,-0.009842565283179283,-0.009866047650575638,-1000.0029296875,-0.0018497027922421694,0.012561257928609848,-0.02881833352148533
46,48,-0.009842565283179283,-0.009866047650575638,-1000.0029296875,-0.0018497027922421694,0.012561257928609848,-0.02881833352148533
55,48,-0.009842565283179283,-0.009866047650575638,-1000.0029296875,-0.0018497027922421694,0.012561257928609848,-0.02881833352148533
51,48,-0.009842565283179283,-0.009866047650575638,-1000.0029296875,-0.0018497027922421694,0.012561257928609848,-0.02881833352148533
67,48,-0.009842565283179283,-0.009866047650575638,-1000.0029296875,-0.0018497027922421694,0.012561257928609848,-0.02881833352148533
126,49,-0.0008917328086681664,-0.005533268209546804,-999.9990234375,-0.0011568596819415689,-0.002744544530287385,-0.0026602784637361765
80,49,-0.0008917328086681664,-0.005533268209546804,-999.9990234375,-0.0011568596819415689,-0.002744544530287385,-0.0026602784637361765
79,49,-0.0008917328086681664,-0.005533268209546804,-999.9990234375,-0.0011568596819415689,-0.002744544530287385,-0.0026602784637361765
96,49,-0.0008917328086681664,-0.005533268209546804,-999.9990234375,-0.0011568596819415689,-0.002744544530287385,-0.0026602784637361765
57,49,-0.0008917328086681664,-0.005533268209546804,-999.9990234375,-0.0011568596819415689,-0.002744544530287385,-0.0026602784637361765
11,49,-0.0008917328086681664,-0.005533268209546804,-999.9990234375,-0.0011568596819415689,-0.002744544530287385,-0.0026602784637361765
10,49,-0.0008917328086681664,-0.005533268209546804,-999.9990234375,-0.0011568596819415689,-0.002744544530287385,-0.0026602784637361765
27,49,-0.0008917328086681664,-0.005533268209546804,-999.9990234375,-0.0011568596819415689,-0.002744544530287385,-0.0026602784637361765
128,50,-0.0011501580011099577,-0.003963616210967302,-1000.0079956054688,-0.0026287497021257877,-0.006346958689391613,0.0017517716623842716
71,50,-0.0011501580011099577,-0.003963616210967302,-1000.0079956054688,-0.0026287497021257877,-0.006346958689391613,0.0017517716623842716
86,50,-0.0011501580011099577,-0.003963616210967302,-1000.0079956054688,-0.0026287497021257877,-0.006346958689391613,0.0017517716623842716
106,50,-0.0011501580011099577,-0.003963616210967302,-1000.0079956054688,-0.0026287497021257877,-0.006346958689391613,0.0017517716623842716
59,50,-0.0011501580011099577,-0.003963616210967302,-1000.0079956054688,-0.0026287497021257877,-0.006346958689391613,0.0017517716623842716
2,50,-0.0011501580011099577,-0.003963616210967302,-1000.0079956054688,-0.0026287497021257877,-0.006346958689391613,0.0017517716623842716
17,50,-0.0011501580011099577,-0.003963616210967302,-1000.0079956054688,-0.0026287497021257877,-0.006346958689391613,0.0017517716623842716
37,50,-0.0011501580011099577,-0.003963616210967302,-1000.0079956054688,-0.0026287497021257877,-0.006346958689391613,0.0017517716623842716
105,51,-0.003583792131394148,-0.0038552479818463326,-1000.0046997070312,0.0021320772357285023,0.002700602635741234,0.004673799499869347
129,51,-0.003583792131394148,-0.0038552479818463326,-1000.0046997070312,0.0021320772357285023,0.002700602635741234,0.004673799499869347
118,51,-0.003583792131394148,-0.0038552479818463326,-1000.0046997070312,0.0021320772357285023,0.002700602635741234,0.004673799499869347
106,51,-0.003583792131394148,-0.0038552479818463326,-1000.0046997070312,0.0021320772357285023,0.002700602635741234,0.004673799499869347
36,51,-0.003583792131394148,-0.0038552479818463326,-1000.0046997070312,0.0021320772357285023,0.002700602635741234,0.004673799499869347
60,51,-0.003583792131394148,-0.0038552479818463326,-1000.0046997070312,0.0021320772357285023,0.002700602635741234,0.004673799499869347
49,51,-0.003583792131394148,-0.0038552479818463326,-1000.0046997070312,0.0021320772357285023,0.002700602635741234,0.004673799499869347
37,51,-0.003583792131394148,-0.0038552479818463326,-1000.0046997070312,0.0021320772357285023,0.002700602635741234,0.004673799499869347
129,52,-0.007179670501500368,-0.009861140511929989,-1000.0158081054688,-0.0058060260489583015,-0.01571686565876007,0.013901695609092712
112,52,-0.007179670501500368,-0.009861140511929989,-1000.0158081054688,-0.0058060260489583015,-0.01571686565876007,0.013901695609092712
138,52,-0.007179670501500368,-0.009861140511929989,-1000.0158081054688,-0.0058060260489583015,-0.01571686565876007,0.013901695609092712
123,52,-0.007179670501500368,-0.009861140511929989,-1000.0158081054688,-0.0058060260489583015,-0.01571686565876007,0.013901695609092712
60,52,-0.007179670501500368,-0.009861140511929989,-1000.0158081054688,-0.0058060260489583015,-0.01571686565876007,0.013901695609092712
43,52,-0.007179670501500368,-0.009861140511929989,-1000.0158081054688,-0.0058060260489583015,-0.01571686565876007,0.013901695609092712
69,52,-0.007179670501500368,-0.009861140511929989,-1000.0158081054688,-0.0058060260489583015,-0.01571686565876007,0.013901695609092712
54,52,-0.007179670501500368,-0.009861140511929989,-1000.0158081054688,-0.0058060260489583015,-0.01571686565876007,0.013901695609092712
131,53,0.006356012541800737,0.022125516086816788,-999.9930419921875,0.0028043852653354406,0.016000011935830116,0.010538997128605843
92,53,0.006356012541800737,0.022125516086816788,-999.9930419921875,0.0028043852653354406,0.016000011935830116,0.010538997128605843
93,53,0.006356012541800737,0.022125516086816788,-999.9930419921875,0.0028043852653354406,0.016000011935830116,0.010538997128605843
117,53,0.006356012541800737,0.022125516086816788,-999.9930419921875,0.0028043852653354406,0.016000011935830116,0.010538997128605843
62,53,0.006356012541800737,0.022125516086816788,-999.9930419921875,0.0028043852653354406,0.016000011935830116,0.010538997128605843
23,53,0.006356012541800737,0.022125516086816788,-999.9930419921875,0.0028043852653354406,0.016000011935830116,0.010538997128605843
24,53,0.006356012541800737,0.022125516086816788,-999.9930419921875,0.0028043852653354406,0.016000011935830116,0.010538997128605843
48,53,0.006356012541800737,0.022125516086816788,-999.9930419921875,0.0028043852653354406,0.016000011935830116,0.010538997128605843
132,54,0.006720222998410463,0.01184824202209711,-999.9921264648438,0.002844152506440878,0.010260026901960373,0.004161335527896881
110,54,0.006720222998410463,0.01184824202209711,-999.9921264648438,0.002844152506440878,0.010260026901960373,0.004161335527896881
95,54,0.006720222998410463,0.01184824202209711,-999.9921264648438,0.002844152506440878,0.010260026901960373,0.004161335527896881
116,54,0.006720222998410463,0.01184824202209711,-999.9921264648438,0.002844152506440878,0.010260026901960373,0.004161335527896881
63,54,0.006720222998410463,0.01184824202209711,-999.9921264648438,0.002844152506440878,0.010260026901960373,0.004161335527896881
41,54,0.006720222998410463,0.01184824202209711,-999.9921264648438,0.002844152506440878,0.010260026901960373,0.004161335527896881
26,54,0.006720222998410463,0.01184824202209711,-999.9921264648438,0.002844152506440878,0.010260026901960373,0.004161335527896881
47,54,0.006720222998410463,0.01184824202209711,-999.9921264648438,0.002844152506440878,0.010260026901960373,0.004161335527896881
134,55,-0.001718621701002121,-0.008460921235382557,-1000.0217895507812,-0.002628942485898733,-0.006442915182560682,-0.002302400069311261
109,55,-0.001718621701002121,-0.008460921235382557,-1000.0217895507812,-0.002628942485898733,-0.006442915182560682,-0.002302400069311261
98,55,-0.001718621701002121,-0.008460921235382557,-1000.0217895507812,-0.002628942485898733,-0.006442915182560682,-0.002302400069311261
113,55,-0.001718621701002121,-0.008460921235382557,-1000.0217895507812,-0.002628942485898733,-0.006442915182560682,-0.002302400069311261
65,55,-0.001718621701002121,-0.008460921235382557,-1000.0217895507812,-0.002628942485898733,-0.006442915182560682,-0.002302400069311261
40,55,-0.001718621701002121,-0.008460921235382557,-1000.0217895507812,-0.002628942485898733,-0.006442915182560682,-0.002302400069311261
29,55,-0.001718621701002121,-0.008460921235382557,-1000.0217895507812,-0.002628942485898733,-0.006442915182560682,-0.002302400069311261
44,55,-0.001718621701002121,-0.008460921235382557,-1000.0217895507812,-0.002628942485898733,-0.006442915182560682,-0.002302400069311261
135,56,-0.006332064978778362,-0.008929084055125713,-1000.0487670898438,-0.002180013805627823,-0.02963562309741974,-0.007121257949620485
99,56,-0.006332064978778362,-0.008929084055125713,-1000.0487670898438,-0.002180013805627823,-0.02963562309741974,-0.007121257949620485
100,56,-0.006332064978778362,-0.008929084055125713,-1000.0487670898438,-0.002180013805627823,-0.02963562309741974,-0.007121257949620485
120,56,-0.006332064978778362,-0.008929084055125713,-1000.0487670898438,-0.002180013805627823,-0.02963562309741974,-0.007121257949620485
66,56,-0.006332064978778362,-0.008929084055125713,-1000.0487670898438,-0.002180013805627823,-0.02963562309741974,-0.007121257949620485
30,56,-0.006332064978778362,-0.008929084055125713,-1000.0487670898438,-0.002180013805627823,-0.02963562309741974,-0.007121257949620485
31,56,-0.006332064978778362,-0.008929084055125713,-1000.0487670898438,-0.002180013805627823,-0.02963562309741974,-0.007121257949620485
51,56,-0.006332064978778362,-0.008929084055125713,-1000.0487670898438,-0.002180013805627823,-0.02963562309741974,-0.007121257949620485
137,57,-0.006774811539798975,-0.0013956072507426143,-1000.0017700195312,-0.0026478106155991554,0.0047280448488891125,0.0011121047427877784
102,57,-0.006774811539798975,-0.0013956072507426143,-1000.0017700195312,-0.0026478106155991554,0.0047280448488891125,0.0011121047427877784
107,57,-0.006774811539798975,-0.0013956072507426143,-1000.0017700195312,-0.0026478106155991554,0.0047280448488891125,0.0011121047427877784
119,57,-0.006774811539798975,-0.0013956072507426143,-1000.0017700195312,-0.0026478106155991554,0.0047280448488891125,0.0011121047427877784
68,57,-0.006774811539798975,-0.0013956072507426143,-1000.0017700195312,-0.0026478106155991554,0.0047280448488891125,0.0011121047427877784
33,57,-0.006774811539798975,-0.0013956072507426143,-1000.0017700195312,-0.0026478106155991554,0.0047280448488891125,0.0011121047427877784
38,57,-0.006774811539798975,-0.0013956072507426143,-1000.0017700195312,-0.0026478106155991554,0.0047280448488891125,0.0011121047427877784
50,57,-0.006774811539798975,-0.0013956072507426143,-1000.0017700195312,-0.0026478106155991554,0.0047280448488891125,0.0011121047427877784
162,58,0.004461994394659996,0.02109909988939762,-1000.0023803710938,0.0032613773364573717,-0.00102385098580271,0.001364353345707059
151,58,0.004461994394659996,0.02109909988939762,-1000.0023803710938,0.0032613773364573717,-0.00102385098580271,0.001364353345707059
150,58,0.004461994394659996,0.02109909988939762,-1000.0023803710938,0.0032613773364573717,-0.00102385098580271,0.001364353345707059
179,58,0.004461994394659996,0.02109909988939762,-1000.0023803710938,0.0032613773364573717,-0.00102385098580271,0.001364353345707059
93,58,0.004461994394659996,0.02109909988939762,-1000.0023803710938,0.0032613773364573717,-0.00102385098580271,0.001364353345707059
82,58,0.004461994394659996,0.02109909988939762,-1000.0023803710938,0.0032613773364573717,-0.00102385098580271,0.001364353345707059
81,58,0.004461994394659996,0.02109909988939762,-1000.0023803710938,0.0032613773364573717,-0.00102385098580271,0.001364353345707059
110,58,0.004461994394659996,0.02109909988939762,-1000.0023803710938,0.0032613773364573717,-0.00102385098580271,0.001364353345707059
179,59,0.004948359448462725,0.01966804452240467,-999.9979858398438,-0.0028005766216665506,0.003094747895374894,-0.005888692103326321
150,59,0.004948359448462725,0.01966804452240467,-999.9979858398438,-0.0028005766216665506,0.003094747895374894,-0.005888692103326321
159,59,0.004948359448462725,0.01966804452240467,-999.9979858398438,-0.0028005766216665506,0.003094747895374894,-0.005888692103326321
164,59,0.004948359448462725,0.01966804452240467,-999.9979858398438,-0.0028005766216665506,0.003094747895374894,-0.005888692103326321
110,59,0.004948359448462725,0.01966804452240467,-999.9979858398438,-0.0028005766216665506,0.003094747895374894,-0.005888692103326321
81,59,0.004948359448462725,0.01966804452240467,-999.9979858398438,-0.0028005766216665506,0.003094747895374894,-0.005888692103326321
90,59,0.004948359448462725,0.01966804452240467,-999.9979858398438,-0.0028005766216665506,0.003094747895374894,-0.005888692103326321
95,59,0.004948359448462725,0.01966804452240467,-999.9979858398438,-0.0028005766216665506,0.003094747895374894,-0.005888692103326321
160,60,-0.00031001048046164215,-0.0018915388500317931,-999.9932250976562,-0.0049659861251711845,0.00782528892159462,0.0013952417066320777
180,60,-0.00031001048046164215,-0.0018915388500317931,-999.9932250976562,-0.0049659861251711845,0.00782528892159462,0.0013952417066320777
163,60,-0.00031001048046164215,-0.0018915388500317931,-999.9932250976562,-0.0049659861251711845,0.00782528892159462,0.0013952417066320777
153,60,-0.00031001048046164215,-0.0018915388500317931,-999.9932250976562,-0.0049659861251711845,0.00782528892159462,0.0013952417066320777
91,60,-0.00031001048046164215,-0.0018915388500317931,-999.9932250976562,-0.0049659861251711845,0.00782528892159462,0.0013952417066320777
111,60,-0.00031001048046164215,-0.0018915388500317931,-999.9932250976562,-0.0049659861251711845,0.00782528892159462,0.0013952417066320777
94,60,-0.00031001048046164215,-0.0018915388500317931,-999.9932250976562,-0.0049659861251711845,0.00782528892159462,0.0013952417066320777
84,60,-0.00031001048046164215,-0.0018915388500317931,-999.9932250976562,-0.0049659861251711845,0.00782528892159462,0.0013952417066320777
151,61,0.0031871632672846317,0.023394692689180374,-999.9944458007812,-0.0058049834333360195,0.008173806592822075,-0.004813991487026215
162,61,0.0031871632672846317,0.023394692689180374,-999.9944458007812,-0.0058049834333360195,0.008173806592822075,-0.004813991487026215
161,61,0.0031871632672846317,0.023394692689180374,-999.9944458007812,-0.0058049834333360195,0.008173806592822075,-0.004813991487026215
152,61,0.0031871632672846317,0.023394692689180374,-999.9944458007812,-0.0058049834333360195,0.008173806592822075,-0.004813991487026215
82,61,0.0031871632672846317,0.023394692689180374,-999.9944458007812,-0.0058049834333360195,0.008173806592822075,-0.004813991487026215
93,61,0.0031871632672846317,0.023394692689180374,-999.9944458007812,-0.0058049834333360195,0.008173806592822075,-0.004813991487026215
92,61,0.0031871632672846317,0.023394692689180374,-999.9944458007812,-0.0058049834333360195,0.008173806592822075,-0.004813991487026215
83,61,0.0031871632672846317,0.023394692689180374,-999.9944458007812,-0.0058049834333360195,0.008173806592822075,-0.004813991487026215
190,62,0.005316925700753927,0.005048487801104784,-999.9947509765625,0.004224332515150309,0.0077068619430065155,-0.009771324694156647
203,62,0.005316925700753927,0.005048487801104784,-999.9947509765625,0.004224332515150309,0.0077068619430065155,-0.009771324694156647
182,62,0.005316925700753927,0.005048487801104784,-999.9947509765625,0.004224332515150309,0.0077068619430065155,-0.009771324694156647
193,62,0.005316925700753927,0.005048487801104784,-999.9947509765625,0.004224332515150309,0.0077068619430065155,-0.009771324694156647
121,62,0.005316925700753927,0.005048487801104784,-999.9947509765625,0.004224332515150309,0.0077068619430065155,-0.009771324694156647
134,62,0.005316925700753927,0.005048487801104784,-999.9947509765625,0.004224332515150309,0.0077068619430065155,-0.009771324694156647
113,62,0.005316925700753927,0.005048487801104784,-999.9947509765625,0.004224332515150309,0.0077068619430065155,-0.009771324694156647
124,62,0.005316925700753927,0.005048487801104784,-999.9947509765625,0.004224332515150309,0.0077068619430065155,-0.009771324694156647
206,63,-0.033733248710632324,-0.03970707207918167,-1000.0126342773438,-0.0022426375653594732,0.0006060449522919953,0.0013300314312800765
184,63,-0.033733248710632324,-0.03970707207918167,-1000.0126342773438,-0.0022426375653594732,0.0006060449522919953,0.0013300314312800765
170,63,-0.033733248710632324,-0.03970707207918167,-1000.0126342773438,-0.0022426375653594732,0.0006060449522919953,0.0013300314312800765
171,63,-0.033733248710632324,-0.03970707207918167,-1000.0126342773438,-0.0022426375653594732,0.0006060449522919953,0.0013300314312800765
137,63,-0.033733248710632324,-0.03970707207918167,-1000.0126342773438,-0.0022426375653594732,0.0006060449522919953,0.0013300314312800765
115,63,-0.033733248710632324,-0.03970707207918167,-1000.0126342773438,-0.0022426375653594732,0.0006060449522919953,0.0013300314312800765
101,63,-0.033733248710632324,-0.03970707207918167,-1000.0126342773438,-0.0022426375653594732,0.0006060449522919953,0.0013300314312800765
102,63,-0.033733248710632324,-0.03970707207918167,-1000.0126342773438,-0.0022426375653594732,0.0006060449522919953,0.0013300314312800765
194,64,-0.014075941406190395,-0.02100009098649025,-1000.0070190429688,0.003752574324607849,0.014273100532591343,0.01509702205657959
191,64,-0.014075941406190395,-0.02100009098649025,-1000.0070190429688,0.003752574324607849,0.014273100532591343,0.01509702205657959
190,64,-0.014075941406190395,-0.02100009098649025,-1000.0070190429688,0.003752574324607849,0.014273100532591343,0.01509702205657959
193,64,-0.014075941406190395,-0.02100009098649025,-1000.0070190429688,0.003752574324607849,0.014273100532591343,0.01509702205657959
125,64,-0.014075941406190395,-0.02100009098649025,-1000.0070190429688,0.003752574324607849,0.014273100532591343,0.01509702205657959
122,64,-0.014075941406190395,-0.02100009098649025,-1000.0070190429688,0.003752574324607849,0.014273100532591343,0.01509702205657959
121,64,-0.014075941406190395,-0.02100009098649025,-1000.0070190429688,0.003752574324607849,0.014273100532591343,0.01509702205657959
124,64,-0.014075941406190395,-0.02100009098649025,-1000.0070190429688,0.003752574324607849,0.014273100532591343,0.01509702205657959
185,65,0.025097288191318512,0.03545253723859787,-999.9911499023438,0.008404259569942951,-0.02055075392127037,-0.011482469737529755
202,65,0.025097288191318512,0.03545253723859787,-999.9911499023438,0.008404259569942951,-0.02055075392127037,-0.011482469737529755
190,65,0.025097288191318512,0.03545253723859787,-999.9911499023438,0.008404259569942951,-0.02055075392127037,-0.011482469737529755
191,65,0.025097288191318512,0.03545253723859787,-999.9911499023438,0.008404259569942951,-0.02055075392127037,-0.011482469737529755
116,65,0.025097288191318512,0.03545253723859787,-999.9911499023438,0.008404259569942951,-0.02055075392127037,-0.011482469737529755
133,65,0.025097288191318512,0.03545253723859787,-999.9911499023438,0.008404259569942951,-0.02055075392127037,-0.011482469737529755
121,65,0.025097288191318512,0.03545253723859787,-999.9911499023438,0.008404259569942951,-0.02055075392127037,-0.011482469737529755
122,65,0.025097288191318512,0.03545253723859787,-999.9911499023438,0.008404259569942951,-0.02055075392127037,-0.011482469737529755
165,66,-0.007822235114872456,-0.011046154424548149,-1000.00732421875,-0.005167432129383087,-0.00556395947933197,0.007425947580486536
178,66,-0.007822235114872456,-0.011046154424548149,-1000.00732421875,-0.005167432129383087,-0.00556395947933197,0.007425947580486536
203,66,-0.007822235114872456,-0.011046154424548149,-1000.00732421875,-0.005167432129383087,-0.00556395947933197,0.007425947580486536
190,66,-0.007822235114872456,-0.011046154424548149,-1000.00732421875,-0.005167432129383087,-0.00556395947933197,0.007425947580486536
96,66,-0.007822235114872456,-0.011046154424548149,-1000.00732421875,-0.005167432129383087,-0.00556395947933197,0.007425947580486536
109,66,-0.007822235114872456,-0.011046154424548149,-1000.00732421875,-0.005167432129383087,-0.00556395947933197,0.007425947580486536
134,66,-0.007822235114872456,-0.011046154424548149,-1000.00732421875,-0.005167432129383087,-0.00556395947933197,0.007425947580486536
121,66,-0.007822235114872456,-0.011046154424548149,-1000.00732421875,-0.005167432129383087,-0.00556395947933197,0.007425947580486536
205,67,-0.05852701514959335,-0.027403375133872032,-1000.0337524414062,-0.01293978001922369,-0.03217689320445061,-0.028811780735850334
189,67,-0.05852701514959335,-0.027403375133872032,-1000.0337524414062,-0.01293978001922369,-0.03217689320445061,-0.028811780735850334
169,67,-0.05852701514959335,-0.027403375133872032,-1000.0337524414062,-0.01293978001922369,-0.03217689320445061,-0.028811780735850334
177,67,-0.05852701514959335,-0.027403375133872032,-1000.0337524414062,-0.01293978001922369,-0.03217689320445061,-0.028811780735850334
136,67,-0.05852701514959335,-0.027403375133872032,-1000.0337524414062,-0.01293978001922369,-0.03217689320445061,-0.028811780735850334
120,67,-0.05852701514959335,-0.027403375133872032,-1000.0337524414062,-0.01293978001922369,-0.03217689320445061,-0.028811780735850334
100,67,-0.05852701514959335,-0.027403375133872032,-1000.0337524414062,-0.01293978001922369,-0.03217689320445061,-0.028811780735850334
108,67,-0.05852701514959335,-0.027403375133872032,-1000.0337524414062,-0.01293978001922369,-0.03217689320445061,-0.028811780735850334
199,68,0.015102197416126728,0.021412717178463936,-999.9806518554688,0.0066750627011060715,0.028862442821264267,-0.011058302596211433
194,68,0.015102197416126728,0.021412717178463936,-999.9806518554688,0.0066750627011060715,0.028862442821264267,-0.011058302596211433
173,68,0.015102197416126728,0.021412717178463936,-999.9806518554688,0.0066750627011060715,0.028862442821264267,-0.011058302596211433
187,68,0.015102197416126728,0.021412717178463936,-999.9806518554688,0.0066750627011060715,0.028862442821264267,-0.011058302596211433
130,68,0.015102197416126728,0.021412717178463936,-999.9806518554688,0.0066750627011060715,0.028862442821264267,-0.011058302596211433
125,68,0.015102197416126728,0.021412717178463936,-999.9806518554688,0.0066750627011060715,0.028862442821264267,-0.011058302596211433
104,68,0.015102197416126728,0.021412717178463936,-999.9806518554688,0.0066750627011060715,0.028862442821264267,-0.011058302596211433
118,68,0.015102197416126728,0.021412717178463936,-999.9806518554688,0.0066750627011060715,0.028862442821264267,-0.011058302596211433
173,69,-0.023726936429739,-0.014435430988669395,-1000.0013427734375,-0.013790693134069443,0.001853165915235877,-0.019596392288804054
188,69,-0.023726936429739,-0.014435430988669395,-1000.0013427734375,-0.013790693134069443,0.001853165915235877,-0.019596392288804054
196,69,-0.023726936429739,-0.014435430988669395,-1000.0013427734375,-0.013790693134069443,0.001853165915235877,-0.019596392288804054
197,69,-0.023726936429739,-0.014435430988669395,-1000.0013427734375,-0.013790693134069443,0.001853165915235877,-0.019596392288804054
104,69,-0.023726936429739,-0.014435430988669395,-1000.0013427734375,-0.013790693134069443,0.001853165915235877,-0.019596392288804054
119,69,-0.023726936429739,-0.014435430988669395,-1000.0013427734375,-0.013790693134069443,0.001853165915235877,-0.019596392288804054
127,69,-0.023726936429739,-0.014435430988669395,-1000.0013427734375,-0.013790693134069443,0.001853165915235877,-0.019596392288804054
128,69,-0.023726936429739,-0.014435430988669395,-1000.0013427734375,-0.013790693134069443,0.001853165915235877,-0.019596392288804054
180,70,-0.002321591367945075,0.005925812758505344,-999.9960327148438,0.021864838898181915,-0.006302513647824526,0.015892023220658302
161,70,-0.002321591367945075,0.005925812758505344,-999.9960327148438,0.021864838898181915,-0.006302513647824526,0.015892023220658302
200,70,-0.002321591367945075,0.005925812758505344,-999.9960327148438,0.021864838898181915,-0.006302513647824526,0.015892023220658302
183,70,-0.002321591367945075,0.005925812758505344,-999.9960327148438,0.021864838898181915,-0.006302513647824526,0.015892023220658302
111,70,-0.002321591367945075,0.005925812758505344,-999.9960327148438,0.021864838898181915,-0.006302513647824526,0.015892023220658302
92,70,-0.002321591367945075,0.005925812758505344,-999.9960327148438,0.021864838898181915,-0.006302513647824526,0.015892023220658302
131,70,-0.002321591367945075,0.005925812758505344,-999.9960327148438,0.021864838898181915,-0.006302513647824526,0.015892023220658302
114,70,-0.002321591367945075,0.005925812758505344,-999.9960327148438,0.021864838898181915,-0.006302513647824526,0.015892023220658302
207,71,-0.010294593870639801,-0.03221025690436363,-1000.0046997070312,0.0016873889835551381,-0.0038912827149033546,-0.014429621398448944
163,71,-0.010294593870639801,-0.03221025690436363,-1000.0046997070312,0.0016873889835551381,-0.0038912827149033546,-0.014429621398448944
180,71,-0.010294593870639801,-0.03221025690436363,-1000.0046997070312,0.0016873889835551381,-0.0038912827149033546,-0.014429621398448944
183,71,-0.010294593870639801,-0.03221025690436363,-1000.0046997070312,0.0016873889835551381,-0.0038912827149033546,-0.014429621398448944
138,71,-0.010294593870639801,-0.03221025690436363,-1000.0046997070312,0.0016873889835551381,-0.0038912827149033546,-0.014429621398448944
94,71,-0.010294593870639801,-0.03221025690436363,-1000.0046997070312,0.0016873889835551381,-0.0038912827149033546,-0.014429621398448944
111,71,-0.010294593870639801,-0.03221025690436363,-1000.0046997070312,0.0016873889835551381,-0.0038912827149033546,-0.014429621398448944
114,71,-0.010294593870639801,-0.03221025690436363,-1000.0046997070312,0.0016873889835551381,-0.0038912827149033546,-0.014429621398448944
167,72,-0.023964455351233482,-0.02191612310707569,-1000.028564453125,-0.004118335898965597,-0.019506817683577538,0.004725562408566475
168,72,-0.023964455351233482,-0.02191612310707569,-1000.028564453125,-0.004118335898965597,-0.019506817683577538,0.004725562408566475
204,72,-0.023964455351233482,-0.02191612310707569,-1000.028564453125,-0.004118335898965597,-0.019506817683577538,0.004725562408566475
182,72,-0.023964455351233482,-0.02191612310707569,-1000.028564453125,-0.004118335898965597,-0.019506817683577538,0.004725562408566475
98,72,-0.023964455351233482,-0.02191612310707569,-1000.028564453125,-0.004118335898965597,-0.019506817683577538,0.004725562408566475
99,72,-0.023964455351233482,-0.02191612310707569,-1000.028564453125,-0.004118335898965597,-0.019506817683577538,0.004725562408566475
135,72,-0.023964455351233482,-0.02191612310707569,-1000.028564453125,-0.004118335898965597,-0.019506817683577538,0.004725562408566475
113,72,-0.023964455351233482,-0.02191612310707569,-1000.028564453125,-0.004118335898965597,-0.019506817683577538,0.004725562408566475
152,73,0.009020674973726273,0.024091294035315514,-1000.005126953125,-0.007262478116899729,-0.0032870147842913866,0.0029536273796111345
161,73,0.009020674973726273,0.024091294035315514,-1000.005126953125,-0.007262478116899729,-0.0032870147842913866,0.0029536273796111345
180,73,0.009020674973726273,0.024091294035315514,-1000.005126953125,-0.007262478116899729,-0.0032870147842913866,0.0029536273796111345
160,73,0.009020674973726273,0.024091294035315514,-1000.005126953125,-0.007262478116899729,-0.0032870147842913866,0.0029536273796111345
83,73,0.009020674973726273,0.024091294035315514,-1000.005126953125,-0.007262478116899729,-0.0032870147842913866,0.0029536273796111345
92,73,0.009020674973726273,0.024091294035315514,-1000.005126953125,-0.007262478116899729,-0.0032870147842913866,0.0029536273796111345
111,73,0.009020674973726273,0.024091294035315514,-1000.005126953125,-0.007262478116899729,-0.0032870147842913866,0.0029536273796111345
91,73,0.009020674973726273,0.024091294035315514,-1000.005126953125,-0.007262478116899729,-0.0032870147842913866,0.0029536273796111345
149,74,0.008539869450032711,0.028483549132943153,-999.998779296875,0.0029255368281155825,-0.004664350766688585,-0.0006826168391853571
195,74,0.008539869450032711,0.028483549132943153,-999.998779296875,0.0029255368281155825,-0.004664350766688585,-0.0006826168391853571
164,74,0.008539869450032711,0.028483549132943153,-999.998779296875,0.0029255368281155825,-0.004664350766688585,-0.0006826168391853571
159,74,0.008539869450032711,0.028483549132943153,-999.998779296875,0.0029255368281155825,-0.004664350766688585,-0.0006826168391853571
80,74,0.008539869450032711,0.028483549132943153,-999.998779296875,0.0029255368281155825,-0.004664350766688585,-0.0006826168391853571
126,74,0.008539869450032711,0.028483549132943153,-999.998779296875,0.0029255368281155825,-0.004664350766688585,-0.0006826168391853571
95,74,0.008539869450032711,0.028483549132943153,-999.998779296875,0.0029255368281155825,-0.004664350766688585,-0.0006826168391853571
90,74,0.008539869450032711,0.028483549132943153,-999.998779296875,0.0029255368281155825,-0.004664350766688585,-0.0006826168391853571
165,75,0.009911099448800087,-0.0029806969687342644,-999.9990844726562,0.0034423675388097763,-0.0009575380245223641,-0.0004187712329439819
148,75,0.009911099448800087,-0.0029806969687342644,-999.9990844726562,0.0034423675388097763,-0.0009575380245223641,-0.0004187712329439819
158,75,0.009911099448800087,-0.0029806969687342644,-999.9990844726562,0.0034423675388097763,-0.0009575380245223641,-0.0004187712329439819
178,75,0.009911099448800087,-0.0029806969687342644,-999.9990844726562,0.0034423675388097763,-0.0009575380245223641,-0.0004187712329439819
96,75,0.009911099448800087,-0.0029806969687342644,-999.9990844726562,0.0034423675388097763,-0.0009575380245223641,-0.0004187712329439819
79,75,0.009911099448800087,-0.0029806969687342644,-999.9990844726562,0.0034423675388097763,-0.0009575380245223641,-0.0004187712329439819
89,75,0.009911099448800087,-0.0029806969687342644,-999.9990844726562,0.0034423675388097763,-0.0009575380245223641,-0.0004187712329439819
109,75,0.009911099448800087,-0.0029806969687342644,-999.9990844726562,0.0034423675388097763,-0.0009575380245223641,-0.0004187712329439819
166,76,-0.0007693554507568479,0.0036280194763094187,-1000.0070190429688,0.0036528175696730614,-0.006977856624871492,-0.00012547048390842974
154,76,-0.0007693554507568479,0.0036280194763094187,-1000.0070190429688,0.0036528175696730614,-0.006977856624871492,-0.00012547048390842974
153,76,-0.0007693554507568479,0.0036280194763094187,-1000.0070190429688,0.0036528175696730614,-0.006977856624871492,-0.00012547048390842974
163,76,-0.0007693554507568479,0.0036280194763094187,-1000.0070190429688,0.0036528175696730614,-0.006977856624871492,-0.00012547048390842974
97,76,-0.0007693554507568479,0.0036280194763094187,-1000.0070190429688,0.0036528175696730614,-0.006977856624871492,-0.00012547048390842974
85,76,-0.0007693554507568479,0.0036280194763094187,-1000.0070190429688,0.0036528175696730614,-0.006977856624871492,-0.00012547048390842974
84,76,-0.0007693554507568479,0.0036280194763094187,-1000.0070190429688,0.0036528175696730614,-0.006977856624871492,-0.00012547048390842974
94,76,-0.0007693554507568479,0.0036280194763094187,-1000.0070190429688,0.0036528175696730614,-0.006977856624871492,-0.00012547048390842974
178,77,0.0037795836105942726,0.0014648103388026357,-1000.001708984375,-0.0022595468908548355,0.0027578037697821856,0.0009749444434419274
158,77,0.0037795836105942726,0.0014648103388026357,-1000.001708984375,-0.0022595468908548355,0.0027578037697821856,0.0009749444434419274
147,77,0.0037795836105942726,0.0014648103388026357,-1000.001708984375,-0.0022595468908548355,0.0027578037697821856,0.0009749444434419274
167,77,0.0037795836105942726,0.0014648103388026357,-1000.001708984375,-0.0022595468908548355,0.0027578037697821856,0.0009749444434419274
109,77,0.0037795836105942726,0.0014648103388026357,-1000.001708984375,-0.0022595468908548355,0.0027578037697821856,0.0009749444434419274
89,77,0.0037795836105942726,0.0014648103388026357,-1000.001708984375,-0.0022595468908548355,0.0027578037697821856,0.0009749444434419274
78,77,0.0037795836105942726,0.0014648103388026357,-1000.001708984375,-0.0022595468908548355,0.0027578037697821856,0.0009749444434419274
98,77,0.0037795836105942726,0.0014648103388026357,-1000.001708984375,-0.0022595468908548355,0.0027578037697821856,0.0009749444434419274
202,78,-0.014019259251654148,-0.012143746018409729,-999.9989013671875,-0.013553506694734097,-0.00394922262057662,-0.005115658976137638
195,78,-0.014019259251654148,-0.012143746018409729,-999.9989013671875,-0.013553506694734097,-0.00394922262057662,-0.005115658976137638
165,78,-0.014019259251654148,-0.012143746018409729,-999.9989013671875,-0.013553506694734097,-0.00394922262057662,-0.005115658976137638
190,78,-0.014019259251654148,-0.012143746018409729,-999.9989013671875,-0.013553506694734097,-0.00394922262057662,-0.005115658976137638
133,78,-0.014019259251654148,-0.012143746018409729,-999.9989013671875,-0.013553506694734097,-0.00394922262057662,-0.005115658976137638
126,78,-0.014019259251654148,-0.012143746018409729,-999.9989013671875,-0.013553506694734097,-0.00394922262057662,-0.005115658976137638
96,78,-0.014019259251654148,-0.012143746018409729,-999.9989013671875,-0.013553506694734097,-0.00394922262057662,-0.005115658976137638
121,78,-0.014019259251654148,-0.012143746018409729,-999.9989013671875,-0.013553506694734097,-0.00394922262057662,-0.005115658976137638
167,79,0.007078832481056452,-0.0037640188820660114,-999.9964599609375,-0.003327625337988138,-0.001969944452866912,-0.002693233313038945
147,79,0.007078832481056452,-0.0037640188820660114,-999.9964599609375,-0.003327625337988138,-0.001969944452866912,-0.002693233313038945
146,79,0.007078832481056452,-0.0037640188820660114,-999.9964599609375,-0.003327625337988138,-0.001969944452866912,-0.002693233313038945
168,79,0.007078832481056452,-0.0037640188820660114,-999.9964599609375,-0.003327625337988138,-0.001969944452866912,-0.002693233313038945
98,79,0.007078832481056452,-0.0037640188820660114,-999.9964599609375,-0.003327625337988138,-0.001969944452866912,-0.002693233313038945
78,79,0.007078832481056452,-0.0037640188820660114,-999.9964599609375,-0.003327625337988138,-0.001969944452866912,-0.002693233313038945
77,79,0.007078832481056452,-0.0037640188820660114,-999.9964599609375,-0.003327625337988138,-0.001969944452866912,-0.002693233313038945
99,79,0.007078832481056452,-0.0037640188820660114,-999.9964599609375,-0.003327625337988138,-0.001969944452866912,-0.002693233313038945
168,80,0.019145436584949493,0.009634640999138355,-1000.0067138671875,0.002064811298623681,0.00032738293521106243,4.8545291065238416e-05
146,80,0.019145436584949493,0.009634640999138355,-1000.0067138671875,0.002064811298623681,0.00032738293521106243,4.8545291065238416e-05
145,80,0.019145436584949493,0.009634640999138355,-1000.0067138671875,0.002064811298623681,0.00032738293521106243,4.8545291065238416e-05
169,80,0.019145436584949493,0.009634640999138355,-1000.0067138671875,0.002064811298623681,0.00032738293521106243,4.8545291065238416e-05
99,80,0.019145436584949493,0.009634640999138355,-1000.0067138671875,0.002064811298623681,0.00032738293521106243,4.8545291065238416e-05
77,80,0.019145436584949493,0.009634640999138355,-1000.0067138671875,0.002064811298623681,0.00032738293521106243,4.8545291065238416e-05
76,80,0.019145436584949493,0.009634640999138355,-1000.0067138671875,0.002064811298623681,0.00032738293521106243,4.8545291065238416e-05
100,80,0.019145436584949493,0.009634640999138355,-1000.0067138671875,0.002064811298623681,0.00032738293521106243,4.8545291065238416e-05
199,81,-0.0066706333309412,0.01633058302104473,-1000.0087280273438,0.0012291288003325462,0.006209587212651968,0.012205096893012524
187,81,-0.0066706333309412,0.01633058302104473,-1000.0087280273438,0.0012291288003325462,0.006209587212651968,0.012205096893012524
198,81,-0.0066706333309412,0.01633058302104473,-1000.0087280273438,0.0012291288003325462,0.006209587212651968,0.012205096893012524
192,81,-0.0066706333309412,0.01633058302104473,-1000.0087280273438,0.0012291288003325462,0.006209587212651968,0.012205096893012524
130,81,-0.0066706333309412,0.01633058302104473,-1000.0087280273438,0.0012291288003325462,0.006209587212651968,0.012205096893012524
118,81,-0.0066706333309412,0.01633058302104473,-1000.0087280273438,0.0012291288003325462,0.006209587212651968,0.012205096893012524
129,81,-0.0066706333309412,0.01633058302104473,-1000.0087280273438,0.0012291288003325462,0.006209587212651968,0.012205096893012524
123,81,-0.0066706333309412,0.01633058302104473,-1000.0087280273438,0.0012291288003325462,0.006209587212651968,0.012205096893012524
154,82,0.008287173695862293,0.0011317889438942075,-999.9918823242188,0.009305235929787159,0.005848614498972893,-0.0036185369826853275
166,82,0.008287173695862293,0.0011317889438942075,-999.9918823242188,0.009305235929787159,0.005848614498972893,-0.0036185369826853275
174,82,0.008287173695862293,0.0011317889438942075,-999.9918823242188,0.009305235929787159,0.005848614498972893,-0.0036185369826853275
139,82,0.008287173695862293,0.0011317889438942075,-999.9918823242188,0.009305235929787159,0.005848614498972893,-0.0036185369826853275
85,82,0.008287173695862293,0.0011317889438942075,-999.9918823242188,0.009305235929787159,0.005848614498972893,-0.0036185369826853275
97,82,0.008287173695862293,0.0011317889438942075,-999.9918823242188,0.009305235929787159,0.005848614498972893,-0.0036185369826853275
105,82,0.008287173695862293,0.0011317889438942075,-999.9918823242188,0.009305235929787159,0.005848614498972893,-0.0036185369826853275
70,82,0.008287173695862293,0.0011317889438942075,-999.9918823242188,0.009305235929787159,0.005848614498972893,-0.0036185369826853275
169,83,0.01604270003736019,-0.005925965495407581,-999.9907836914062,0.0008750391425564885,-0.0006479414878413081,0.006242451723664999
145,83,0.01604270003736019,-0.005925965495407581,-999.9907836914062,0.0008750391425564885,-0.0006479414878413081,0.006242451723664999
157,83,0.01604270003736019,-0.005925965495407581,-999.9907836914062,0.0008750391425564885,-0.0006479414878413081,0.006242451723664999
177,83,0.01604270003736019,-0.005925965495407581,-999.9907836914062,0.0008750391425564885,-0.0006479414878413081,0.006242451723664999
100,83,0.01604270003736019,-0.005925965495407581,-999.9907836914062,0.0008750391425564885,-0.0006479414878413081,0.006242451723664999
76,83,0.01604270003736019,-0.005925965495407581,-999.9907836914062,0.0008750391425564885,-0.0006479414878413081,0.006242451723664999
88,83,0.01604270003736019,-0.005925965495407581,-999.9907836914062,0.0008750391425564885,-0.0006479414878413081,0.006242451723664999
108,83,0.01604270003736019,-0.005925965495407581,-999.9907836914062,0.0008750391425564885,-0.0006479414878413081,0.006242451723664999
177,84,0.01210448332130909,0.009875514544546604,-1000.0086669921875,-0.004062018357217312,-0.0012140648905187845,-0.0027875350788235664
157,84,0.01210448332130909,0.009875514544546604,-1000.0086669921875,-0.004062018357217312,-0.0012140648905187845,-0.0027875350788235664
144,84,0.01210448332130909,0.009875514544546604,-1000.0086669921875,-0.004062018357217312,-0.0012140648905187845,-0.0027875350788235664
170,84,0.01210448332130909,0.009875514544546604,-1000.0086669921875,-0.004062018357217312,-0.0012140648905187845,-0.0027875350788235664
108,84,0.01210448332130909,0.009875514544546604,-1000.0086669921875,-0.004062018357217312,-0.0012140648905187845,-0.0027875350788235664
88,84,0.01210448332130909,0.009875514544546604,-1000.0086669921875,-0.004062018357217312,-0.0012140648905187845,-0.0027875350788235664
75,84,0.01210448332130909,0.009875514544546604,-1000.0086669921875,-0.004062018357217312,-0.0012140648905187845,-0.0027875350788235664
101,84,0.01210448332130909,0.009875514544546604,-1000.0086669921875,-0.004062018357217312,-0.0012140648905187845,-0.0027875350788235664
170,85,0.009041429497301579,0.021311800926923752,-999.9913330078125,-0.008410700596868992,-0.0019648869056254625,0.0014835370238870382
144,85,0.009041429497301579,0.021311800926923752,-999.9913330078125,-0.008410700596868992,-0.0019648869056254625,0.0014835370238870382
143,85,0.009041429497301579,0.021311800926923752,-999.9913330078125,-0.008410700596868992,-0.0019648869056254625,0.0014835370238870382
171,85,0.009041429497301579,0.021311800926923752,-999.9913330078125,-0.008410700596868992,-0.0019648869056254625,0.0014835370238870382
101,85,0.009041429497301579,0.021311800926923752,-999.9913330078125,-0.008410700596868992,-0.0019648869056254625,0.0014835370238870382
75,85,0.009041429497301579,0.021311800926923752,-999.9913330078125,-0.008410700596868992,-0.0019648869056254625,0.0014835370238870382
74,85,0.009041429497301579,0.021311800926923752,-999.9913330078125,-0.008410700596868992,-0.0019648869056254625,0.0014835370238870382
102,85,0.009041429497301579,0.021311800926923752,-999.9913330078125,-0.008410700596868992,-0.0019648869056254625,0.0014835370238870382
171,86,0.0019026374211534858,0.008079610764980316,-1000.0062255859375,0.0021893971133977175,-0.0016210713656619191,-3.725848364410922e-05
143,86,0.0019026374211534858,0.008079610764980316,-1000.0062255859375,0.0021893971133977175,-0.0016210713656619191,-3.725848364410922e-05
156,86,0.0019026374211534858,0.008079610764980316,-1000.0062255859375,0.0021893971133977175,-0.0016210713656619191,-3.725848364410922e-05
176,86,0.0019026374211534858,0.008079610764980316,-1000.0062255859375,0.0021893971133977175,-0.0016210713656619191,-3.725848364410922e-05
102,86,0.0019026374211534858,0.008079610764980316,-1000.0062255859375,0.0021893971133977175,-0.0016210713656619191,-3.725848364410922e-05
74,86,0.0019026374211534858,0.008079610764980316,-1000.0062255859375,0.0021893971133977175,-0.0016210713656619191,-3.725848364410922e-05
87,86,0.0019026374211534858,0.008079610764980316,-1000.0062255859375,0.0021893971133977175,-0.0016210713656619191,-3.725848364410922e-05
107,86,0.0019026374211534858,0.008079610764980316,-1000.0062255859375,0.0021893971133977175,-0.0016210713656619191,-3.725848364410922e-05
176,87,-3.384420051588677e-05,0.008148645982146263,-999.9951782226562,0.0006187775288708508,0.007250701542943716,0.001183182466775179
156,87,-3.384420051588677e-05,0.008148645982146263,-999.9951782226562,0.0006187775288708508,0.007250701542943716,0.001183182466775179
142,87,-3.384420051588677e-05,0.008148645982146263,-999.9951782226562,0.0006187775288708508,0.007250701542943716,0.001183182466775179
172,87,-3.384420051588677e-05,0.008148645982146263,-999.9951782226562,0.0006187775288708508,0.007250701542943716,0.001183182466775179
107,87,-3.384420051588677e-05,0.008148645982146263,-999.9951782226562,0.0006187775288708508,0.007250701542943716,0.001183182466775179
87,87,-3.384420051588677e-05,0.008148645982146263,-999.9951782226562,0.0006187775288708508,0.007250701542943716,0.001183182466775179
73,87,-3.384420051588677e-05,0.008148645982146263,-999.9951782226562,0.0006187775288708508,0.007250701542943716,0.001183182466775179
103,87,-3.384420051588677e-05,0.008148645982146263,-999.9951782226562,0.0006187775288708508,0.007250701542943716,0.001183182466775179
196,88,0.023792169988155365,0.025288300588726997,-1000.0006713867188,0.010581044480204582,0.0026607487816363573,0.00534478947520256
141,88,0.023792169988155365,0.025288300588726997,-1000.0006713867188,0.010581044480204582,0.0026607487816363573,0.00534478947520256
140,88,0.023792169988155365,0.025288300588726997,-1000.0006713867188,0.010581044480204582,0.0026607487816363573,0.00534478947520256
197,88,0.023792169988155365,0.025288300588726997,-1000.0006713867188,0.010581044480204582,0.0026607487816363573,0.00534478947520256
127,88,0.023792169988155365,0.025288300588726997,-1000.0006713867188,0.010581044480204582,0.0026607487816363573,0.00534478947520256
72,88,0.023792169988155365,0.025288300588726997,-1000.0006713867188,0.010581044480204582,0.0026607487816363573,0.00534478947520256
71,88,0.023792169988155365,0.025288300588726997,-1000.0006713867188,0.010581044480204582,0.0026607487816363573,0.00534478947520256
128,88,0.023792169988155365,0.025288300588726997,-1000.0006713867188,0.010581044480204582,0.0026607487816363573,0.00534478947520256
175,89,-0.0025016223080456257,0.006110111251473427,-1000.0064697265625,-0.0005306233069859445,-0.0030980687588453293,-1.713257734081708e-05
155,89,-0.0025016223080456257,0.006110111251473427,-1000.0064697265625,-0.0005306233069859445,-0.0030980687588453293,-1.713257734081708e-05
139,89,-0.0025016223080456257,0.006110111251473427,-1000.0064697265625,-0.0005306233069859445,-0.0030980687588453293,-1.713257734081708e-05
174,89,-0.0025016223080456257,0.006110111251473427,-1000.0064697265625,-0.0005306233069859445,-0.0030980687588453293,-1.713257734081708e-05
106,89,-0.0025016223080456257,0.006110111251473427,-1000.0064697265625,-0.0005306233069859445,-0.0030980687588453293,-1.713257734081708e-05
86,89,-0.0025016223080456257,0.006110111251473427,-1000.0064697265625,-0.0005306233069859445,-0.0030980687588453293,-1.713257734081708e-05
70,89,-0.0025016223080456257,0.006110111251473427,-1000.0064697265625,-0.0005306233069859445,-0.0030980687588453293,-1.713257734081708e-05
105,89,-0.0025016223080456257,0.006110111251473427,-1000.0064697265625,-0.0005306233069859445,-0.0030980687588453293,-1.713257734081708e-05
198,90,-0.025198910385370255,-0.04518730193376541,-1000.0111694335938,-0.009451661258935928,0.004756825976073742,0.024694304913282394
174,90,-0.025198910385370255,-0.04518730193376541,-1000.0111694335938,-0.009451661258935928,0.004756825976073742,0.024694304913282394
166,90,-0.025198910385370255,-0.04518730193376541,-1000.0111694335938,-0.009451661258935928,0.004756825976073742,0.024694304913282394
181,90,-0.025198910385370255,-0.04518730193376541,-1000.0111694335938,-0.009451661258935928,0.004756825976073742,0.024694304913282394
129,90,-0.025198910385370255,-0.04518730193376541,-1000.0111694335938,-0.009451661258935928,0.004756825976073742,0.024694304913282394
105,90,-0.025198910385370255,-0.04518730193376541,-1000.0111694335938,-0.009451661258935928,0.004756825976073742,0.024694304913282394
97,90,-0.025198910385370255,-0.04518730193376541,-1000.0111694335938,-0.009451661258935928,0.004756825976073742,0.024694304913282394
112,90,-0.025198910385370255,-0.04518730193376541,-1000.0111694335938,-0.009451661258935928,0.004756825976073742,0.024694304913282394
197,91,-0.013491146266460419,-0.03244493529200554,-1000.0103759765625,-0.0035808361135423183,-0.01394907757639885,0.01186427567154169
175,91,-0.013491146266460419,-0.03244493529200554,-1000.0103759765625,-0.0035808361135423183,-0.01394907757639885,0.01186427567154169
187,91,-0.013491146266460419,-0.03244493529200554,-1000.0103759765625,-0.0035808361135423183,-0.01394907757639885,0.01186427567154169
173,91,-0.013491146266460419,-0.03244493529200554,-1000.0103759765625,-0.0035808361135423183,-0.01394907757639885,0.01186427567154169
128,91,-0.013491146266460419,-0.03244493529200554,-1000.0103759765625,-0.0035808361135423183,-0.01394907757639885,0.01186427567154169
106,91,-0.013491146266460419,-0.03244493529200554,-1000.0103759765625,-0.0035808361135423183,-0.01394907757639885,0.01186427567154169
118,91,-0.013491146266460419,-0.03244493529200554,-1000.0103759765625,-0.0035808361135423183,-0.01394907757639885,0.01186427567154169
104,91,-0.013491146266460419,-0.03244493529200554,-1000.0103759765625,-0.0035808361135423183,-0.01394907757639885,0.01186427567154169
172,92,0.013865816406905651,0.017282992601394653,-1000.0014038085938,0.012755384668707848,-0.009798229672014713,0.0027407414745539427
142,92,0.013865816406905651,0.017282992601394653,-1000.0014038085938,0.012755384668707848,-0.009798229672014713,0.0027407414745539427
141,92,0.013865816406905651,0.017282992601394653,-1000.0014038085938,0.012755384668707848,-0.009798229672014713,0.0027407414745539427
196,92,0.013865816406905651,0.017282992601394653,-1000.0014038085938,0.012755384668707848,-0.009798229672014713,0.0027407414745539427
103,92,0.013865816406905651,0.017282992601394653,-1000.0014038085938,0.012755384668707848,-0.009798229672014713,0.0027407414745539427
73,92,0.013865816406905651,0.017282992601394653,-1000.0014038085938,0.012755384668707848,-0.009798229672014713,0.0027407414745539427
72,92,0.013865816406905651,0.017282992601394653,-1000.0014038085938,0.012755384668707848,-0.009798229672014713,0.0027407414745539427
127,92,0.013865816406905651,0.017282992601394653,-1000.0014038085938,0.012755384668707848,-0.009798229672014713,0.0027407414745539427
181,93,0.005723725073039532,0.03682967275381088,-999.99853515625,-0.0037469270173460245,-0.012316051870584488,0.0012572777923196554
166,93,0.005723725073039532,0.03682967275381088,-999.99853515625,-0.0037469270173460245,-0.012316051870584488,0.0012572777923196554
163,93,0.005723725073039532,0.03682967275381088,-999.99853515625,-0.0037469270173460245,-0.012316051870584488,0.0012572777923196554
207,93,0.005723725073039532,0.03682967275381088,-999.99853515625,-0.0037469270173460245,-0.012316051870584488,0.0012572777923196554
112,93,0.005723725073039532,0.03682967275381088,-999.99853515625,-0.0037469270173460245,-0.012316051870584488,0.0012572777923196554
97,93,0.005723725073039532,0.03682967275381088,-999.99853515625,-0.0037469270173460245,-0.012316051870584488,0.0012572777923196554
94,93,0.005723725073039532,0.03682967275381088,-999.99853515625,-0.0037469270173460245,-0.012316051870584488,0.0012572777923196554
138,93,0.005723725073039532,0.03682967275381088,-999.99853515625,-0.0037469270173460245,-0.012316051870584488,0.0012572777923196554
192,94,-0.006486035417765379,-0.01538819819688797,-1000.0006103515625,-0.009887438267469406,0.0018550357781350613,0.026165148243308067
207,94,-0.006486035417765379,-0.01538819819688797,-1000.0006103515625,-0.009887438267469406,0.0018550357781350613,0.026165148243308067
183,94,-0.006486035417765379,-0.01538819819688797,-1000.0006103515625,-0.009887438267469406,0.0018550357781350613,0.026165148243308067
191,94,-0.006486035417765379,-0.01538819819688797,-1000.0006103515625,-0.009887438267469406,0.0018550357781350613,0.026165148243308067
123,94,-0.006486035417765379,-0.01538819819688797,-1000.0006103515625,-0.009887438267469406,0.0018550357781350613,0.026165148243308067
138,94,-0.006486035417765379,-0.01538819819688797,-1000.0006103515625,-0.009887438267469406,0.0018550357781350613,0.026165148243308067
114,94,-0.006486035417765379,-0.01538819819688797,-1000.0006103515625,-0.009887438267469406,0.0018550357781350613,0.026165148243308067
122,94,-0.006486035417765379,-0.01538819819688797,-1000.0006103515625,-0.009887438267469406,0.0018550357781350613,0.026165148243308067
162,95,0.004838627763092518,-0.018587134778499603,-999.99658203125,0.012471402063965797,0.0015150682302191854,0.028167545795440674
179,95,0.004838627763092518,-0.018587134778499603,-999.99658203125,0.012471402063965797,0.0015150682302191854,0.028167545795440674
201,95,0.004838627763092518,-0.018587134778499603,-999.99658203125,0.012471402063965797,0.0015150682302191854,0.028167545795440674
186,95,0.004838627763092518,-0.018587134778499603,-999.99658203125,0.012471402063965797,0.0015150682302191854,0.028167545795440674
93,95,0.004838627763092518,-0.018587134778499603,-999.99658203125,0.012471402063965797,0.0015150682302191854,0.028167545795440674
110,95,0.004838627763092518,-0.018587134778499603,-999.99658203125,0.012471402063965797,0.0015150682302191854,0.028167545795440674
132,95,0.004838627763092518,-0.018587134778499603,-999.99658203125,0.012471402063965797,0.0015150682302191854,0.028167545795440674
117,95,0.004838627763092518,-0.018587134778499603,-999.99658203125,0.012471402063965797,0.0015150682302191854,0.028167545795440674
186,96,-0.002331295982003212,0.04483603313565254,-999.9842529296875,0.001997509505599737,0.0068619693629443645,-0.036861542612314224
201,96,-0.002331295982003212,0.04483603313565254,-999.9842529296875,0.001997509505599737,0.0068619693629443645,-0.036861542612314224
185,96,-0.002331295982003212,0.04483603313565254,-999.9842529296875,0.001997509505599737,0.0068619693629443645,-0.036861542612314224
191,96,-0.002331295982003212,0.04483603313565254,-999.9842529296875,0.001997509505599737,0.0068619693629443645,-0.036861542612314224
117,96,-0.002331295982003212,0.04483603313565254,-999.9842529296875,0.001997509505599737,0.0068619693629443645,-0.036861542612314224
132,96,-0.002331295982003212,0.04483603313565254,-999.9842529296875,0.001997509505599737,0.0068619693629443645,-0.036861542612314224
116,96,-0.002331295982003212,0.04483603313565254,-999.9842529296875,0.001997509505599737,0.0068619693629443645,-0.036861542612314224
122,96,-0.002331295982003212,0.04483603313565254,-999.9842529296875,0.001997509505599737,0.0068619693629443645,-0.036861542612314224
188,97,-0.02346961200237274,-0.030450578778982162,-1000.00244140625,-0.011370089836418629,-0.0007046508835628629,-0.0009228393901139498
176,97,-0.02346961200237274,-0.030450578778982162,-1000.00244140625,-0.011370089836418629,-0.0007046508835628629,-0.0009228393901139498
172,97,-0.02346961200237274,-0.030450578778982162,-1000.00244140625,-0.011370089836418629,-0.0007046508835628629,-0.0009228393901139498
196,97,-0.02346961200237274,-0.030450578778982162,-1000.00244140625,-0.011370089836418629,-0.0007046508835628629,-0.0009228393901139498
119,97,-0.02346961200237274,-0.030450578778982162,-1000.00244140625,-0.011370089836418629,-0.0007046508835628629,-0.0009228393901139498
107,97,-0.02346961200237274,-0.030450578778982162,-1000.00244140625,-0.011370089836418629,-0.0007046508835628629,-0.0009228393901139498
103,97,-0.02346961200237274,-0.030450578778982162,-1000.00244140625,-0.011370089836418629,-0.0007046508835628629,-0.0009228393901139498
127,97,-0.02346961200237274,-0.030450578778982162,-1000.00244140625,-0.011370089836418629,-0.0007046508835628629,-0.0009228393901139498
186,98,0.019987916573882103,0.03446927294135094,-999.9934692382812,-0.009781129658222198,0.027550846338272095,-0.00039943912997841835
191,98,0.019987916573882103,0.03446927294135094,-999.9934692382812,-0.009781129658222198,0.027550846338272095,-0.00039943912997841835
183,98,0.019987916573882103,0.03446927294135094,-999.9934692382812,-0.009781129658222198,0.027550846338272095,-0.00039943912997841835
200,98,0.019987916573882103,0.03446927294135094,-999.9934692382812,-0.009781129658222198,0.027550846338272095,-0.00039943912997841835
117,98,0.019987916573882103,0.03446927294135094,-999.9934692382812,-0.009781129658222198,0.027550846338272095,-0.00039943912997841835
122,98,0.019987916573882103,0.03446927294135094,-999.9934692382812,-0.009781129658222198,0.027550846338272095,-0.00039943912997841835
114,98,0.019987916573882103,0.03446927294135094,-999.9934692382812,-0.009781129658222198,0.027550846338272095,-0.00039943912997841835
131,98,0.019987916573882103,0.03446927294135094,-999.9934692382812,-0.009781129658222198,0.027550846338272095,-0.00039943912997841835
164,99,-0.006140305195003748,-0.044791627675294876,-1000.0046997070312,0.0044726161286234856,0.0221243966370821,0.014724678359925747
195,99,-0.006140305195003748,-0.044791627675294876,-1000.0046997070312,0.0044726161286234856,0.0221243966370821,0.014724678359925747
202,99,-0.006140305195003748,-0.044791627675294876,-1000.0046997070312,0.0044726161286234856,0.0221243966370821,0.014724678359925747
185,99,-0.006140305195003748,-0.044791627675294876,-1000.0046997070312,0.0044726161286234856,0.0221243966370821,0.014724678359925747
95,99,-0.006140305195003748,-0.044791627675294876,-1000.0046997070312,0.0044726161286234856,0.0221243966370821,0.014724678359925747
126,99,-0.006140305195003748,-0.044791627675294876,-1000.0046997070312,0.0044726161286234856,0.0221243966370821,0.014724678359925747
133,99,-0.006140305195003748,-0.044791627675294876,-1000.0046997070312,0.0044726161286234856,0.0221243966370821,0.014724678359925747
116,99,-0.006140305195003748,-0.044791627675294876,-1000.0046997070312,0.0044726161286234856,0.0221243966370821,0.014724678359925747
206,100,0.021522723138332367,0.024523863568902016,-999.9996948242188,0.007644955068826675,-0.003964135888963938,0.02449698932468891
188,100,0.021522723138332367,0.024523863568902016,-999.9996948242188,0.007644955068826675,-0.003964135888963938,0.02449698932468891
173,100,0.021522723138332367,0.024523863568902016,-999.9996948242188,0.007644955068826675,-0.003964135888963938,0.02449698932468891
194,100,0.021522723138332367,0.024523863568902016,-999.9996948242188,0.007644955068826675,-0.003964135888963938,0.02449698932468891
137,100,0.021522723138332367,0.024523863568902016,-999.9996948242188,0.007644955068826675,-0.003964135888963938,0.02449698932468891
119,100,0.021522723138332367,0.024523863568902016,-999.9996948242188,0.007644955068826675,-0.003964135888963938,0.02449698932468891
104,100,0.021522723138332367,0.024523863568902016,-999.9996948242188,0.007644955068826675,-0.003964135888963938,0.02449698932468891
125,100,0.021522723138332367,0.024523863568902016,-999.9996948242188,0.007644955068826675,-0.003964135888963938,0.02449698932468891
182,101,0.03205794468522072,-0.008467522449791431,-999.9925537109375,-0.0010501096257939935,-0.0194172915071249,-0.01630903035402298
204,101,0.03205794468522072,-0.008467522449791431,-999.9925537109375,-0.0010501096257939935,-0.0194172915071249,-0.01630903035402298
189,101,0.03205794468522072,-0.008467522449791431,-999.9925537109375,-0.0010501096257939935,-0.0194172915071249,-0.01630903035402298
193,101,0.03205794468522072,-0.008467522449791431,-999.9925537109375,-0.0010501096257939935,-0.0194172915071249,-0.01630903035402298
113,101,0.03205794468522072,-0.008467522449791431,-999.9925537109375,-0.0010501096257939935,-0.0194172915071249,-0.01630903035402298
135,101,0.03205794468522072,-0.008467522449791431,-999.9925537109375,-0.0010501096257939935,-0.0194172915071249,-0.01630903035402298
120,101,0.03205794468522072,-0.008467522449791431,-999.9925537109375,-0.0010501096257939935,-0.0194172915071249,-0.01630903035402298
124,101,0.03205794468522072,-0.008467522449791431,-999.9925537109375,-0.0010501096257939935,-0.0194172915071249,-0.01630903035402298
205,102,0.015800444409251213,0.008800494484603405,-999.9793090820312,0.02165183424949646,0.029207149520516396,0.002949276240542531
177,102,0.015800444409251213,0.008800494484603405,-999.9793090820312,0.02165183424949646,0.029207149520516396,0.002949276240542531
170,102,0.015800444409251213,0.008800494484603405,-999.9793090820312,0.02165183424949646,0.029207149520516396,0.002949276240542531
184,102,0.015800444409251213,0.008800494484603405,-999.9793090820312,0.02165183424949646,0.029207149520516396,0.002949276240542531
136,102,0.015800444409251213,0.008800494484603405,-999.9793090820312,0.02165183424949646,0.029207149520516396,0.002949276240542531
108,102,0.015800444409251213,0.008800494484603405,-999.9793090820312,0.02165183424949646,0.029207149520516396,0.002949276240542531
101,102,0.015800444409251213,0.008800494484603405,-999.9793090820312,0.02165183424949646,0.029207149520516396,0.002949276240542531
115,102,0.015800444409251213,0.008800494484603405,-999.9793090820312,0.02165183424949646,0.029207149520516396,0.002949276240542531
194,103,-0.011010302230715752,0.010513827204704285,-999.9966430664062,-0.011377321556210518,-0.0053753782995045185,-0.022807704284787178
193,103,-0.011010302230715752,0.010513827204704285,-999.9966430664062,-0.011377321556210518,-0.0053753782995045185,-0.022807704284787178
184,103,-0.011010302230715752,0.010513827204704285,-999.9966430664062,-0.011377321556210518,-0.0053753782995045185,-0.022807704284787178
206,103,-0.011010302230715752,0.010513827204704285,-999.9966430664062,-0.011377321556210518,-0.0053753782995045185,-0.022807704284787178
125,103,-0.011010302230715752,0.010513827204704285,-999.9966430664062,-0.011377321556210518,-0.0053753782995045185,-0.022807704284787178
124,103,-0.011010302230715752,0.010513827204704285,-999.9966430664062,-0.011377321556210518,-0.0053753782995045185,-0.022807704284787178
115,103,-0.011010302230715752,0.010513827204704285,-999.9966430664062,-0.011377321556210518,-0.0053753782995045185,-0.022807704284787178
137,103,-0.011010302230715752,0.010513827204704285,-999.9966430664062,-0.011377321556210518,-0.0053753782995045185,-0.022807704284787178
194,104,-0.0046042706817388535,-0.02406652644276619,-1000.0109252929688,-0.0010917207691818476,-0.033397696912288666,-0.016125865280628204
199,104,-0.0046042706817388535,-0.02406652644276619,-1000.0109252929688,-0.0010917207691818476,-0.033397696912288666,-0.016125865280628204
192,104,-0.0046042706817388535,-0.02406652644276619,-1000.0109252929688,-0.0010917207691818476,-0.033397696912288666,-0.016125865280628204
191,104,-0.0046042706817388535,-0.02406652644276619,-1000.0109252929688,-0.0010917207691818476,-0.033397696912288666,-0.016125865280628204
125,104,-0.0046042706817388535,-0.02406652644276619,-1000.0109252929688,-0.0010917207691818476,-0.033397696912288666,-0.016125865280628204
130,104,-0.0046042706817388535,-0.02406652644276619,-1000.0109252929688,-0.0010917207691818476,-0.033397696912288666,-0.016125865280628204
123,104,-0.0046042706817388535,-0.02406652644276619,-1000.0109252929688,-0.0010917207691818476,-0.033397696912288666,-0.016125865280628204
122,104,-0.0046042706817388535,-0.02406652644276619,-1000.0109252929688,-0.0010917207691818476,-0.033397696912288666,-0.016125865280628204
184,105,0.033508140593767166,0.024952242150902748,-999.9994506835938,-0.00022479226754512638,-0.006532373838126659,0.03636527433991432
193,105,0.033508140593767166,0.024952242150902748,-999.9994506835938,-0.00022479226754512638,-0.006532373838126659,0.03636527433991432
189,105,0.033508140593767166,0.024952242150902748,-999.9994506835938,-0.00022479226754512638,-0.006532373838126659,0.03636527433991432
205,105,0.033508140593767166,0.024952242150902748,-999.9994506835938,-0.00022479226754512638,-0.006532373838126659,0.03636527433991432
115,105,0.033508140593767166,0.024952242150902748,-999.9994506835938,-0.00022479226754512638,-0.006532373838126659,0.03636527433991432
124,105,0.033508140593767166,0.024952242150902748,-999.9994506835938,-0.00022479226754512638,-0.006532373838126659,0.03636527433991432
120,105,0.033508140593767166,0.024952242150902748,-999.9994506835938,-0.00022479226754512638,-0.006532373838126659,0.03636527433991432
136,105,0.033508140593767166,0.024952242150902748,-999.9994506835938,-0.00022479226754512638,-0.006532373838126659,0.03636527433991432
195,106,0.004997143987566233,0.01890443079173565,-1000.0004272460938,0.004565028473734856,0.0019856139551848173,0.0005423324764706194
149,106,0.004997143987566233,0.01890443079173565,-1000.0004272460938,0.004565028473734856,0.0019856139551848173,0.0005423324764706194
148,106,0.004997143987566233,0.01890443079173565,-1000.0004272460938,0.004565028473734856,0.0019856139551848173,0.0005423324764706194
165,106,0.004997143987566233,0.01890443079173565,-1000.0004272460938,0.004565028473734856,0.0019856139551848173,0.0005423324764706194
126,106,0.004997143987566233,0.01890443079173565,-1000.0004272460938,0.004565028473734856,0.0019856139551848173,0.0005423324764706194
80,106,0.004997143987566233,0.01890443079173565,-1000.0004272460938,0.004565028473734856,0.0019856139551848173,0.0005423324764706194
79,106,0.004997143987566233,0.01890443079173565,-1000.0004272460938,0.004565028473734856,0.0019856139551848173,0.0005423324764706194
96,106,0.004997143987566233,0.01890443079173565,-1000.0004272460938,0.004565028473734856,0.0019856139551848173,0.0005423324764706194
197,107,0.003146669827401638,0.011053101159632206,-999.9944458007812,0.007377410773187876,0.0057804277166724205,-0.002028720686212182
140,107,0.003146669827401638,0.011053101159632206,-999.9944458007812,0.007377410773187876,0.0057804277166724205,-0.002028720686212182
155,107,0.003146669827401638,0.011053101159632206,-999.9944458007812,0.007377410773187876,0.0057804277166724205,-0.002028720686212182
175,107,0.003146669827401638,0.011053101159632206,-999.9944458007812,0.007377410773187876,0.0057804277166724205,-0.002028720686212182
128,107,0.003146669827401638,0.011053101159632206,-999.9944458007812,0.007377410773187876,0.0057804277166724205,-0.002028720686212182
71,107,0.003146669827401638,0.011053101159632206,-999.9944458007812,0.007377410773187876,0.0057804277166724205,-0.002028720686212182
86,107,0.003146669827401638,0.011053101159632206,-999.9944458007812,0.007377410773187876,0.0057804277166724205,-0.002028720686212182
106,107,0.003146669827401638,0.011053101159632206,-999.9944458007812,0.007377410773187876,0.0057804277166724205,-0.002028720686212182
174,108,0.009627868421375751,0.011066561564803123,-999.9934692382812,-0.005977213848382235,-0.0075851622968912125,-0.011639083735644817
198,108,0.009627868421375751,0.011066561564803123,-999.9934692382812,-0.005977213848382235,-0.0075851622968912125,-0.011639083735644817
187,108,0.009627868421375751,0.011066561564803123,-999.9934692382812,-0.005977213848382235,-0.0075851622968912125,-0.011639083735644817
175,108,0.009627868421375751,0.011066561564803123,-999.9934692382812,-0.005977213848382235,-0.0075851622968912125,-0.011639083735644817
105,108,0.009627868421375751,0.011066561564803123,-999.9934692382812,-0.005977213848382235,-0.0075851622968912125,-0.011639083735644817
129,108,0.009627868421375751,0.011066561564803123,-999.9934692382812,-0.005977213848382235,-0.0075851622968912125,-0.011639083735644817
118,108,0.009627868421375751,0.011066561564803123,-999.9934692382812,-0.005977213848382235,-0.0075851622968912125,-0.011639083735644817
106,108,0.009627868421375751,0.011066561564803123,-999.9934692382812,-0.005977213848382235,-0.0075851622968912125,-0.011639083735644817
198,109,0.021977609023451805,0.02125491388142109,-999.98583984375,0.014669948257505894,0.0188993401825428,-0.02488674223423004
181,109,0.021977609023451805,0.02125491388142109,-999.98583984375,0.014669948257505894,0.0188993401825428,-0.02488674223423004
207,109,0.021977609023451805,0.02125491388142109,-999.98583984375,0.014669948257505894,0.0188993401825428,-0.02488674223423004
192,109,0.021977609023451805,0.02125491388142109,-999.98583984375,0.014669948257505894,0.0188993401825428,-0.02488674223423004
129,109,0.021977609023451805,0.02125491388142109,-999.98583984375,0.014669948257505894,0.0188993401825428,-0.02488674223423004
112,109,0.021977609023451805,0.02125491388142109,-999.98583984375,0.014669948257505894,0.0188993401825428,-0.02488674223423004
138,109,0.021977609023451805,0.02125491388142109,-999.98583984375,0.014669948257505894,0.0188993401825428,-0.02488674223423004
123,109,0.021977609023451805,0.02125491388142109,-999.98583984375,0.014669948257505894,0.0188993401825428,-0.02488674223423004
200,110,-0.020788297057151794,-0.06470391899347305,-1000.01513671875,-0.007105666678398848,-0.025235038250684738,-0.01362837664783001
161,110,-0.020788297057151794,-0.06470391899347305,-1000.01513671875,-0.007105666678398848,-0.025235038250684738,-0.01362837664783001
162,110,-0.020788297057151794,-0.06470391899347305,-1000.01513671875,-0.007105666678398848,-0.025235038250684738,-0.01362837664783001
186,110,-0.020788297057151794,-0.06470391899347305,-1000.01513671875,-0.007105666678398848,-0.025235038250684738,-0.01362837664783001
131,110,-0.020788297057151794,-0.06470391899347305,-1000.01513671875,-0.007105666678398848,-0.025235038250684738,-0.01362837664783001
92,110,-0.020788297057151794,-0.06470391899347305,-1000.01513671875,-0.007105666678398848,-0.025235038250684738,-0.01362837664783001
93,110,-0.020788297057151794,-0.06470391899347305,-1000.01513671875,-0.007105666678398848,-0.025235038250684738,-0.01362837664783001
117,110,-0.020788297057151794,-0.06470391899347305,-1000.01513671875,-0.007105666678398848,-0.025235038250684738,-0.01362837664783001
201,111,-0.020657066255807877,-0.03707817941904068,-1000.0139770507812,-0.011596341617405415,-0.01151115819811821,0.0050650471821427345
179,111,-0.020657066255807877,-0.03707817941904068,-1000.0139770507812,-0.011596341617405415,-0.01151115819811821,0.0050650471821427345
164,111,-0.020657066255807877,-0.03707817941904068,-1000.0139770507812,-0.011596341617405415,-0.01151115819811821,0.0050650471821427345
185,111,-0.020657066255807877,-0.03707817941904068,-1000.0139770507812,-0.011596341617405415,-0.01151115819811821,0.0050650471821427345
132,111,-0.020657066255807877,-0.03707817941904068,-1000.0139770507812,-0.011596341617405415,-0.01151115819811821,0.0050650471821427345
110,111,-0.020657066255807877,-0.03707817941904068,-1000.0139770507812,-0.011596341617405415,-0.01151115819811821,0.0050650471821427345
95,111,-0.020657066255807877,-0.03707817941904068,-1000.0139770507812,-0.011596341617405415,-0.01151115819811821,0.0050650471821427345
116,111,-0.020657066255807877,-0.03707817941904068,-1000.0139770507812,-0.011596341617405415,-0.01151115819811821,0.0050650471821427345
203,112,-0.00512508861720562,0.017002448439598083,-999.9866943359375,0.005198470316827297,0.007810606621205807,0.0018127827206626534
178,112,-0.00512508861720562,0.017002448439598083,-999.9866943359375,0.005198470316827297,0.007810606621205807,0.0018127827206626534
167,112,-0.00512508861720562,0.017002448439598083,-999.9866943359375,0.005198470316827297,0.007810606621205807,0.0018127827206626534
182,112,-0.00512508861720562,0.017002448439598083,-999.9866943359375,0.005198470316827297,0.007810606621205807,0.0018127827206626534
134,112,-0.00512508861720562,0.017002448439598083,-999.9866943359375,0.005198470316827297,0.007810606621205807,0.0018127827206626534
109,112,-0.00512508861720562,0.017002448439598083,-999.9866943359375,0.005198470316827297,0.007810606621205807,0.0018127827206626534
98,112,-0.00512508861720562,0.017002448439598083,-999.9866943359375,0.005198470316827297,0.007810606621205807,0.0018127827206626534
113,112,-0.00512508861720562,0.017002448439598083,-999.9866943359375,0.005198470316827297,0.007810606621205807,0.0018127827206626534
204,113,-0.007656668312847614,0.017812926322221756,-999.9683837890625,0.007622815202921629,0.037643738090991974,0.008106608875095844
168,113,-0.007656668312847614,0.017812926322221756,-999.9683837890625,0.007622815202921629,0.037643738090991974,0.008106608875095844
169,113,-0.007656668312847614,0.017812926322221756,-999.9683837890625,0.007622815202921629,0.037643738090991974,0.008106608875095844
189,113,-0.007656668312847614,0.017812926322221756,-999.9683837890625,0.007622815202921629,0.037643738090991974,0.008106608875095844
135,113,-0.007656668312847614,0.017812926322221756,-999.9683837890625,0.007622815202921629,0.037643738090991974,0.008106608875095844
99,113,-0.007656668312847614,0.017812926322221756,-999.9683837890625,0.007622815202921629,0.037643738090991974,0.008106608875095844
100,113,-0.007656668312847614,0.017812926322221756,-999.9683837890625,0.007622815202921629,0.037643738090991974,0.008106608875095844
120,113,-0.007656668312847614,0.017812926322221756,-999.9683837890625,0.007622815202921629,0.037643738090991974,0.008106608875095844
206,114,0.020347557961940765,0.004688463173806667,-999.9953002929688,0.008312653750181198,0.000730595551431179,-0.004845618270337582
171,114,0.020347557961940765,0.004688463173806667,-999.9953002929688,0.008312653750181198,0.000730595551431179,-0.004845618270337582
176,114,0.020347557961940765,0.004688463173806667,-999.9953002929688,0.008312653750181198,0.000730595551431179,-0.004845618270337582
188,114,0.020347557961940765,0.004688463173806667,-999.9953002929688,0.008312653750181198,0.000730595551431179,-0.004845618270337582
137,114,0.020347557961940765,0.004688463173806667,-999.9953002929688,0.008312653750181198,0.000730595551431179,-0.004845618270337582
102,114,0.020347557961940765,0.004688463173806667,-999.9953002929688,0.008312653750181198,0.000730595551431179,-0.004845618270337582
107,114,0.020347557961940765,0.004688463173806667,-999.9953002929688,0.008312653750181198,0.000730595551431179,-0.004845618270337582
119,114,0.020347557961940765,0.004688463173806667,-999.9953002929688,0.008312653750181198,0.000730595551431179,-0.004845618270337582
231,115,-0.00817484688013792,-0.03986942768096924,-999.9982299804688,-0.00469784764572978,-0.00044530598097480834,0.0007776784477755427
220,115,-0.00817484688013792,-0.03986942768096924,-999.9982299804688,-0.00469784764572978,-0.00044530598097480834,0.0007776784477755427
219,115,-0.00817484688013792,-0.03986942768096924,-999.9982299804688,-0.00469784764572978,-0.00044530598097480834,0.0007776784477755427
248,115,-0.00817484688013792,-0.03986942768096924,-999.9982299804688,-0.00469784764572978,-0.00044530598097480834,0.0007776784477755427
162,115,-0.00817484688013792,-0.03986942768096924,-999.9982299804688,-0.00469784764572978,-0.00044530598097480834,0.0007776784477755427
151,115,-0.00817484688013792,-0.03986942768096924,-999.9982299804688,-0.00469784764572978,-0.00044530598097480834,0.0007776784477755427
150,115,-0.00817484688013792,-0.03986942768096924,-999.9982299804688,-0.00469784764572978,-0.00044530598097480834,0.0007776784477755427
179,115,-0.00817484688013792,-0.03986942768096924,-999.9982299804688,-0.00469784764572978,-0.00044530598097480834,0.0007776784477755427
248,116,-0.009513583034276962,-0.03774076700210571,-1000.00146484375,0.004847434815019369,-0.002510341117158532,0.009127350524067879
219,116,-0.009513583034276962,-0.03774076700210571,-1000.00146484375,0.004847434815019369,-0.002510341117158532,0.009127350524067879
228,116,-0.009513583034276962,-0.03774076700210571,-1000.00146484375,0.004847434815019369,-0.002510341117158532,0.009127350524067879
233,116,-0.009513583034276962,-0.03774076700210571,-1000.00146484375,0.004847434815019369,-0.002510341117158532,0.009127350524067879
179,116,-0.009513583034276962,-0.03774076700210571,-1000.00146484375,0.004847434815019369,-0.002510341117158532,0.009127350524067879
150,116,-0.009513583034276962,-0.03774076700210571,-1000.00146484375,0.004847434815019369,-0.002510341117158532,0.009127350524067879
159,116,-0.009513583034276962,-0.03774076700210571,-1000.00146484375,0.004847434815019369,-0.002510341117158532,0.009127350524067879
164,116,-0.009513583034276962,-0.03774076700210571,-1000.00146484375,0.004847434815019369,-0.002510341117158532,0.009127350524067879
229,117,0.0008103354484774172,0.0026015620678663254,-1000.0059204101562,0.006966119632124901,-0.006700011435896158,-0.0016177328070625663
249,117,0.0008103354484774172,0.0026015620678663254,-1000.0059204101562,0.006966119632124901,-0.006700011435896158,-0.0016177328070625663
232,117,0.0008103354484774172,0.0026015620678663254,-1000.0059204101562,0.006966119632124901,-0.006700011435896158,-0.0016177328070625663
222,117,0.0008103354484774172,0.0026015620678663254,-1000.0059204101562,0.006966119632124901,-0.006700011435896158,-0.0016177328070625663
160,117,0.0008103354484774172,0.0026015620678663254,-1000.0059204101562,0.006966119632124901,-0.006700011435896158,-0.0016177328070625663
180,117,0.0008103354484774172,0.0026015620678663254,-1000.0059204101562,0.006966119632124901,-0.006700011435896158,-0.0016177328070625663
163,117,0.0008103354484774172,0.0026015620678663254,-1000.0059204101562,0.006966119632124901,-0.006700011435896158,-0.0016177328070625663
153,117,0.0008103354484774172,0.0026015620678663254,-1000.0059204101562,0.006966119632124901,-0.006700011435896158,-0.0016177328070625663
220,118,-0.008247408084571362,-0.04068540036678314,-1000.0050048828125,0.010813474655151367,-0.00880635716021061,0.005878690630197525
231,118,-0.008247408084571362,-0.04068540036678314,-1000.0050048828125,0.010813474655151367,-0.00880635716021061,0.005878690630197525
230,118,-0.008247408084571362,-0.04068540036678314,-1000.0050048828125,0.010813474655151367,-0.00880635716021061,0.005878690630197525
221,118,-0.008247408084571362,-0.04068540036678314,-1000.0050048828125,0.010813474655151367,-0.00880635716021061,0.005878690630197525
151,118,-0.008247408084571362,-0.04068540036678314,-1000.0050048828125,0.010813474655151367,-0.00880635716021061,0.005878690630197525
162,118,-0.008247408084571362,-0.04068540036678314,-1000.0050048828125,0.010813474655151367,-0.00880635716021061,0.005878690630197525
161,118,-0.008247408084571362,-0.04068540036678314,-1000.0050048828125,0.010813474655151367,-0.00880635716021061,0.005878690630197525
152,118,-0.008247408084571362,-0.04068540036678314,-1000.0050048828125,0.010813474655151367,-0.00880635716021061,0.005878690630197525
259,119,-0.010843456722795963,-0.008809196762740612,-1000.0060424804688,-0.006228507962077856,-0.006761758588254452,0.014160607010126114
272,119,-0.010843456722795963,-0.008809196762740612,-1000.0060424804688,-0.006228507962077856,-0.006761758588254452,0.014160607010126114
251,119,-0.010843456722795963,-0.008809196762740612,-1000.0060424804688,-0.006228507962077856,-0.006761758588254452,0.014160607010126114
262,119,-0.010843456722795963,-0.008809196762740612,-1000.0060424804688,-0.006228507962077856,-0.006761758588254452,0.014160607010126114
190,119,-0.010843456722795963,-0.008809196762740612,-1000.0060424804688,-0.006228507962077856,-0.006761758588254452,0.014160607010126114
203,119,-0.010843456722795963,-0.008809196762740612,-1000.0060424804688,-0.006228507962077856,-0.006761758588254452,0.014160607010126114
182,119,-0.010843456722795963,-0.008809196762740612,-1000.0060424804688,-0.006228507962077856,-0.006761758588254452,0.014160607010126114
193,119,-0.010843456722795963,-0.008809196762740612,-1000.0060424804688,-0.006228507962077856,-0.006761758588254452,0.014160607010126114
275,120,0.056527797132730484,0.06656397134065628,-999.9856567382812,0.004094668198376894,0.004098488017916679,-0.0021596618462353945
253,120,0.056527797132730484,0.06656397134065628,-999.9856567382812,0.004094668198376894,0.004098488017916679,-0.0021596618462353945
239,120,0.056527797132730484,0.06656397134065628,-999.9856567382812,0.004094668198376894,0.004098488017916679,-0.0021596618462353945
240,120,0.056527797132730484,0.06656397134065628,-999.9856567382812,0.004094668198376894,0.004098488017916679,-0.0021596618462353945
206,120,0.056527797132730484,0.06656397134065628,-999.9856567382812,0.004094668198376894,0.004098488017916679,-0.0021596618462353945
184,120,0.056527797132730484,0.06656397134065628,-999.9856567382812,0.004094668198376894,0.004098488017916679,-0.0021596618462353945
170,120,0.056527797132730484,0.06656397134065628,-999.9856567382812,0.004094668198376894,0.004098488017916679,-0.0021596618462353945
171,120,0.056527797132730484,0.06656397134065628,-999.9856567382812,0.004094668198376894,0.004098488017916679,-0.0021596618462353945
263,121,0.021666062995791435,0.034037888050079346,-999.9923095703125,-0.006931140087544918,-0.016700144857168198,-0.01848892867565155
260,121,0.021666062995791435,0.034037888050079346,-999.9923095703125,-0.006931140087544918,-0.016700144857168198,-0.01848892867565155
259,121,0.021666062995791435,0.034037888050079346,-999.9923095703125,-0.006931140087544918,-0.016700144857168198,-0.01848892867565155
262,121,0.021666062995791435,0.034037888050079346,-999.9923095703125,-0.006931140087544918,-0.016700144857168198,-0.01848892867565155
194,121,0.021666062995791435,0.034037888050079346,-999.9923095703125,-0.006931140087544918,-0.016700144857168198,-0.01848892867565155
191,121,0.021666062995791435,0.034037888050079346,-999.9923095703125,-0.006931140087544918,-0.016700144857168198,-0.01848892867565155
190,121,0.021666062995791435,0.034037888050079346,-999.9923095703125,-0.006931140087544918,-0.016700144857168198,-0.01848892867565155
193,121,0.021666062995791435,0.034037888050079346,-999.9923095703125,-0.006931140087544918,-0.016700144857168198,-0.01848892867565155
254,122,-0.039624422788619995,-0.06116275489330292,-1000.0082397460938,-0.012141689658164978,0.02456996589899063,0.014475919306278229
271,122,-0.039624422788619995,-0.06116275489330292,-1000.0082397460938,-0.012141689658164978,0.02456996589899063,0.014475919306278229
259,122,-0.039624422788619995,-0.06116275489330292,-1000.0082397460938,-0.012141689658164978,0.02456996589899063,0.014475919306278229
260,122,-0.039624422788619995,-0.06116275489330292,-1000.0082397460938,-0.012141689658164978,0.02456996589899063,0.014475919306278229
185,122,-0.039624422788619995,-0.06116275489330292,-1000.0082397460938,-0.012141689658164978,0.02456996589899063,0.014475919306278229
202,122,-0.039624422788619995,-0.06116275489330292,-1000.0082397460938,-0.012141689658164978,0.02456996589899063,0.014475919306278229
190,122,-0.039624422788619995,-0.06116275489330292,-1000.0082397460938,-0.012141689658164978,0.02456996589899063,0.014475919306278229
191,122,-0.039624422788619995,-0.06116275489330292,-1000.0082397460938,-0.012141689658164978,0.02456996589899063,0.014475919306278229
234,123,0.011647173203527927,0.02024003304541111,-999.993408203125,0.007130230776965618,0.005871965549886227,-0.010451234877109528
247,123,0.011647173203527927,0.02024003304541111,-999.993408203125,0.007130230776965618,0.005871965549886227,-0.010451234877109528
272,123,0.011647173203527927,0.02024003304541111,-999.993408203125,0.007130230776965618,0.005871965549886227,-0.010451234877109528
259,123,0.011647173203527927,0.02024003304541111,-999.993408203125,0.007130230776965618,0.005871965549886227,-0.010451234877109528
165,123,0.011647173203527927,0.02024003304541111,-999.993408203125,0.007130230776965618,0.005871965549886227,-0.010451234877109528
178,123,0.011647173203527927,0.02024003304541111,-999.993408203125,0.007130230776965618,0.005871965549886227,-0.010451234877109528
203,123,0.011647173203527927,0.02024003304541111,-999.993408203125,0.007130230776965618,0.005871965549886227,-0.010451234877109528
190,123,0.011647173203527927,0.02024003304541111,-999.993408203125,0.007130230776965618,0.005871965549886227,-0.010451234877109528
274,124,0.08973831683397293,0.04468148574233055,-999.969970703125,0.02148883230984211,0.03742701932787895,0.034225936979055405
258,124,0.08973831683397293,0.04468148574233055,-999.969970703125,0.02148883230984211,0.03742701932787895,0.034225936979055405
238,124,0.08973831683397293,0.04468148574233055,-999.969970703125,0.02148883230984211,0.03742701932787895,0.034225936979055405
246,124,0.08973831683397293,0.04468148574233055,-999.969970703125,0.02148883230984211,0.03742701932787895,0.034225936979055405
205,124,0.08973831683397293,0.04468148574233055,-999.969970703125,0.02148883230984211,0.03742701932787895,0.034225936979055405
189,124,0.08973831683397293,0.04468148574233055,-999.969970703125,0.02148883230984211,0.03742701932787895,0.034225936979055405
169,124,0.08973831683397293,0.04468148574233055,-999.969970703125,0.02148883230984211,0.03742701932787895,0.034225936979055405
177,124,0.08973831683397293,0.04468148574233055,-999.969970703125,0.02148883230984211,0.03742701932787895,0.034225936979055405
268,125,-0.02152402512729168,-0.034843266010284424,-1000.0166015625,-0.010445325635373592,-0.033403921872377396,0.013669561594724655
263,125,-0.02152402512729168,-0.034843266010284424,-1000.0166015625,-0.010445325635373592,-0.033403921872377396,0.013669561594724655
242,125,-0.02152402512729168,-0.034843266010284424,-1000.0166015625,-0.010445325635373592,-0.033403921872377396,0.013669561594724655
256,125,-0.02152402512729168,-0.034843266010284424,-1000.0166015625,-0.010445325635373592,-0.033403921872377396,0.013669561594724655
199,125,-0.02152402512729168,-0.034843266010284424,-1000.0166015625,-0.010445325635373592,-0.033403921872377396,0.013669561594724655
194,125,-0.02152402512729168,-0.034843266010284424,-1000.0166015625,-0.010445325635373592,-0.033403921872377396,0.013669561594724655
173,125,-0.02152402512729168,-0.034843266010284424,-1000.0166015625,-0.010445325635373592,-0.033403921872377396,0.013669561594724655
187,125,-0.02152402512729168,-0.034843266010284424,-1000.0166015625,-0.010445325635373592,-0.033403921872377396,0.013669561594724655
242,126,0.03979247808456421,0.024601895362138748,-1000.0,0.023745710030198097,-0.0007662369171157479,0.022703101858496666
257,126,0.03979247808456421,0.024601895362138748,-1000.0,0.023745710030198097,-0.0007662369171157479,0.022703101858496666
265,126,0.03979247808456421,0.024601895362138748,-1000.0,0.023745710030198097,-0.0007662369171157479,0.022703101858496666
266,126,0.03979247808456421,0.024601895362138748,-1000.0,0.023745710030198097,-0.0007662369171157479,0.022703101858496666
173,126,0.03979247808456421,0.024601895362138748,-1000.0,0.023745710030198097,-0.0007662369171157479,0.022703101858496666
188,126,0.03979247808456421,0.024601895362138748,-1000.0,0.023745710030198097,-0.0007662369171157479,0.022703101858496666
196,126,0.03979247808456421,0.024601895362138748,-1000.0,0.023745710030198097,-0.0007662369171157479,0.022703101858496666
197,126,0.03979247808456421,0.024601895362138748,-1000.0,0.023745710030198097,-0.0007662369171157479,0.022703101858496666
249,127,0.0018341330578550696,-0.012164185754954815,-1000.0130004882812,-0.03643057122826576,0.008398039266467094,-0.02125542238354683
230,127,0.0018341330578550696,-0.012164185754954815,-1000.0130004882812,-0.03643057122826576,0.008398039266467094,-0.02125542238354683
269,127,0.0018341330578550696,-0.012164185754954815,-1000.0130004882812,-0.03643057122826576,0.008398039266467094,-0.02125542238354683
252,127,0.0018341330578550696,-0.012164185754954815,-1000.0130004882812,-0.03643057122826576,0.008398039266467094,-0.02125542238354683
180,127,0.0018341330578550696,-0.012164185754954815,-1000.0130004882812,-0.03643057122826576,0.008398039266467094,-0.02125542238354683
161,127,0.0018341330578550696,-0.012164185754954815,-1000.0130004882812,-0.03643057122826576,0.008398039266467094,-0.02125542238354683
200,127,0.0018341330578550696,-0.012164185754954815,-1000.0130004882812,-0.03643057122826576,0.008398039266467094,-0.02125542238354683
183,127,0.0018341330578550696,-0.012164185754954815,-1000.0130004882812,-0.03643057122826576,0.008398039266467094,-0.02125542238354683
276,128,0.021390823647379875,0.057220496237277985,-999.9866943359375,-0.002928502392023802,0.00514604477211833,0.01704680547118187
232,128,0.021390823647379875,0.057220496237277985,-999.9866943359375,-0.002928502392023802,0.00514604477211833,0.01704680547118187
249,128,0.021390823647379875,0.057220496237277985,-999.9866943359375,-0.002928502392023802,0.00514604477211833,0.01704680547118187
252,128,0.021390823647379875,0.057220496237277985,-999.9866943359375,-0.002928502392023802,0.00514604477211833,0.01704680547118187
207,128,0.021390823647379875,0.057220496237277985,-999.9866943359375,-0.002928502392023802,0.00514604477211833,0.01704680547118187
163,128,0.021390823647379875,0.057220496237277985,-999.9866943359375,-0.002928502392023802,0.00514604477211833,0.01704680547118187
180,128,0.021390823647379875,0.057220496237277985,-999.9866943359375,-0.002928502392023802,0.00514604477211833,0.01704680547118187
183,128,0.021390823647379875,0.057220496237277985,-999.9866943359375,-0.002928502392023802,0.00514604477211833,0.01704680547118187
236,129,0.037517283111810684,0.03459303826093674,-999.9757080078125,0.005916796624660492,0.016193144023418427,-0.0062957764603197575
237,129,0.037517283111810684,0.03459303826093674,-999.9757080078125,0.005916796624660492,0.016193144023418427,-0.0062957764603197575
273,129,0.037517283111810684,0.03459303826093674,-999.9757080078125,0.005916796624660492,0.016193144023418427,-0.0062957764603197575
251,129,0.037517283111810684,0.03459303826093674,-999.9757080078125,0.005916796624660492,0.016193144023418427,-0.0062957764603197575
167,129,0.037517283111810684,0.03459303826093674,-999.9757080078125,0.005916796624660492,0.016193144023418427,-0.0062957764603197575
168,129,0.037517283111810684,0.03459303826093674,-999.9757080078125,0.005916796624660492,0.016193144023418427,-0.0062957764603197575
204,129,0.037517283111810684,0.03459303826093674,-999.9757080078125,0.005916796624660492,0.016193144023418427,-0.0062957764603197575
182,129,0.037517283111810684,0.03459303826093674,-999.9757080078125,0.005916796624660492,0.016193144023418427,-0.0062957764603197575
221,130,-0.017289981245994568,-0.04264277592301369,-999.995361328125,0.0140521926805377,0.0007205050787888467,-0.0018868527840822935
230,130,-0.017289981245994568,-0.04264277592301369,-999.995361328125,0.0140521926805377,0.0007205050787888467,-0.0018868527840822935
249,130,-0.017289981245994568,-0.04264277592301369,-999.995361328125,0.0140521926805377,0.0007205050787888467,-0.0018868527840822935
229,130,-0.017289981245994568,-0.04264277592301369,-999.995361328125,0.0140521926805377,0.0007205050787888467,-0.0018868527840822935
152,130,-0.017289981245994568,-0.04264277592301369,-999.995361328125,0.0140521926805377,0.0007205050787888467,-0.0018868527840822935
161,130,-0.017289981245994568,-0.04264277592301369,-999.995361328125,0.0140521926805377,0.0007205050787888467,-0.0018868527840822935
180,130,-0.017289981245994568,-0.04264277592301369,-999.995361328125,0.0140521926805377,0.0007205050787888467,-0.0018868527840822935
160,130,-0.017289981245994568,-0.04264277592301369,-999.995361328125,0.0140521926805377,0.0007205050787888467,-0.0018868527840822935
218,131,-0.01607886143028736,-0.050446122884750366,-1000.001708984375,-0.006543650757521391,0.0054567065089941025,0.0015635970048606396
264,131,-0.01607886143028736,-0.050446122884750366,-1000.001708984375,-0.006543650757521391,0.0054567065089941025,0.0015635970048606396
233,131,-0.01607886143028736,-0.050446122884750366,-1000.001708984375,-0.006543650757521391,0.0054567065089941025,0.0015635970048606396
228,131,-0.01607886143028736,-0.050446122884750366,-1000.001708984375,-0.006543650757521391,0.0054567065089941025,0.0015635970048606396
149,131,-0.01607886143028736,-0.050446122884750366,-1000.001708984375,-0.006543650757521391,0.0054567065089941025,0.0015635970048606396
195,131,-0.01607886143028736,-0.050446122884750366,-1000.001708984375,-0.006543650757521391,0.0054567065089941025,0.0015635970048606396
164,131,-0.01607886143028736,-0.050446122884750366,-1000.001708984375,-0.006543650757521391,0.0054567065089941025,0.0015635970048606396
159,131,-0.01607886143028736,-0.050446122884750366,-1000.001708984375,-0.006543650757521391,0.0054567065089941025,0.0015635970048606396
234,132,-0.016444912180304527,0.003999548964202404,-1000.00146484375,-0.005295233801007271,0.0014900184469297528,0.0010754639515653253
217,132,-0.016444912180304527,0.003999548964202404,-1000.00146484375,-0.005295233801007271,0.0014900184469297528,0.0010754639515653253
227,132,-0.016444912180304527,0.003999548964202404,-1000.00146484375,-0.005295233801007271,0.0014900184469297528,0.0010754639515653253
247,132,-0.016444912180304527,0.003999548964202404,-1000.00146484375,-0.005295233801007271,0.0014900184469297528,0.0010754639515653253
165,132,-0.016444912180304527,0.003999548964202404,-1000.00146484375,-0.005295233801007271,0.0014900184469297528,0.0010754639515653253
148,132,-0.016444912180304527,0.003999548964202404,-1000.00146484375,-0.005295233801007271,0.0014900184469297528,0.0010754639515653253
158,132,-0.016444912180304527,0.003999548964202404,-1000.00146484375,-0.005295233801007271,0.0014900184469297528,0.0010754639515653253
178,132,-0.016444912180304527,0.003999548964202404,-1000.00146484375,-0.005295233801007271,0.0014900184469297528,0.0010754639515653253
235,133,-0.0025945366360247135,-0.005680656526237726,-999.9935913085938,-0.0048643616028130054,0.003529381938278675,0.000763415708206594
223,133,-0.0025945366360247135,-0.005680656526237726,-999.9935913085938,-0.0048643616028130054,0.003529381938278675,0.000763415708206594
222,133,-0.0025945366360247135,-0.005680656526237726,-999.9935913085938,-0.0048643616028130054,0.003529381938278675,0.000763415708206594
232,133,-0.0025945366360247135,-0.005680656526237726,-999.9935913085938,-0.0048643616028130054,0.003529381938278675,0.000763415708206594
166,133,-0.0025945366360247135,-0.005680656526237726,-999.9935913085938,-0.0048643616028130054,0.003529381938278675,0.000763415708206594
154,133,-0.0025945366360247135,-0.005680656526237726,-999.9935913085938,-0.0048643616028130054,0.003529381938278675,0.000763415708206594
153,133,-0.0025945366360247135,-0.005680656526237726,-999.9935913085938,-0.0048643616028130054,0.003529381938278675,0.000763415708206594
163,133,-0.0025945366360247135,-0.005680656526237726,-999.9935913085938,-0.0048643616028130054,0.003529381938278675,0.000763415708206594
247,134,-0.006712797097861767,-0.002033773809671402,-999.9984130859375,0.0031706427689641714,-0.0024218400940299034,-0.0006642467924393713
227,134,-0.006712797097861767,-0.002033773809671402,-999.9984130859375,0.0031706427689641714,-0.0024218400940299034,-0.0006642467924393713
216,134,-0.006712797097861767,-0.002033773809671402,-999.9984130859375,0.0031706427689641714,-0.0024218400940299034,-0.0006642467924393713
236,134,-0.006712797097861767,-0.002033773809671402,-999.9984130859375,0.0031706427689641714,-0.0024218400940299034,-0.0006642467924393713
178,134,-0.006712797097861767,-0.002033773809671402,-999.9984130859375,0.0031706427689641714,-0.0024218400940299034,-0.0006642467924393713
158,134,-0.006712797097861767,-0.002033773809671402,-999.9984130859375,0.0031706427689641714,-0.0024218400940299034,-0.0006642467924393713
147,134,-0.006712797097861767,-0.002033773809671402,-999.9984130859375,0.0031706427689641714,-0.0024218400940299034,-0.0006642467924393713
167,134,-0.006712797097861767,-0.002033773809671402,-999.9984130859375,0.0031706427689641714,-0.0024218400940299034,-0.0006642467924393713
271,135,0.025060229003429413,0.01935908943414688,-1000.0003662109375,0.023322725668549538,0.0017119580879807472,0.003768082708120346
264,135,0.025060229003429413,0.01935908943414688,-1000.0003662109375,0.023322725668549538,0.0017119580879807472,0.003768082708120346
234,135,0.025060229003429413,0.01935908943414688,-1000.0003662109375,0.023322725668549538,0.0017119580879807472,0.003768082708120346
259,135,0.025060229003429413,0.01935908943414688,-1000.0003662109375,0.023322725668549538,0.0017119580879807472,0.003768082708120346
202,135,0.025060229003429413,0.01935908943414688,-1000.0003662109375,0.023322725668549538,0.0017119580879807472,0.003768082708120346
195,135,0.025060229003429413,0.01935908943414688,-1000.0003662109375,0.023322725668549538,0.0017119580879807472,0.003768082708120346
165,135,0.025060229003429413,0.01935908943414688,-1000.0003662109375,0.023322725668549538,0.0017119580879807472,0.003768082708120346
190,135,0.025060229003429413,0.01935908943414688,-1000.0003662109375,0.023322725668549538,0.0017119580879807472,0.003768082708120346
236,136,-0.013622349128127098,0.00559357600286603,-1000.0037841796875,0.0056692264042794704,0.003516638185828924,0.0037736159283667803
216,136,-0.013622349128127098,0.00559357600286603,-1000.0037841796875,0.0056692264042794704,0.003516638185828924,0.0037736159283667803
215,136,-0.013622349128127098,0.00559357600286603,-1000.0037841796875,0.0056692264042794704,0.003516638185828924,0.0037736159283667803
237,136,-0.013622349128127098,0.00559357600286603,-1000.0037841796875,0.0056692264042794704,0.003516638185828924,0.0037736159283667803
167,136,-0.013622349128127098,0.00559357600286603,-1000.0037841796875,0.0056692264042794704,0.003516638185828924,0.0037736159283667803
147,136,-0.013622349128127098,0.00559357600286603,-1000.0037841796875,0.0056692264042794704,0.003516638185828924,0.0037736159283667803
146,136,-0.013622349128127098,0.00559357600286603,-1000.0037841796875,0.0056692264042794704,0.003516638185828924,0.0037736159283667803
168,136,-0.013622349128127098,0.00559357600286603,-1000.0037841796875,0.0056692264042794704,0.003516638185828924,0.0037736159283667803
237,137,-0.0338742770254612,-0.01612839102745056,-999.9946899414062,-0.004004495684057474,0.0010472788708284497,-0.0013840408064424992
215,137,-0.0338742770254612,-0.01612839102745056,-999.9946899414062,-0.004004495684057474,0.0010472788708284497,-0.0013840408064424992
214,137,-0.0338742770254612,-0.01612839102745056,-999.9946899414062,-0.004004495684057474,0.0010472788708284497,-0.0013840408064424992
238,137,-0.0338742770254612,-0.01612839102745056,-999.9946899414062,-0.004004495684057474,0.0010472788708284497,-0.0013840408064424992
168,137,-0.0338742770254612,-0.01612839102745056,-999.9946899414062,-0.004004495684057474,0.0010472788708284497,-0.0013840408064424992
146,137,-0.0338742770254612,-0.01612839102745056,-999.9946899414062,-0.004004495684057474,0.0010472788708284497,-0.0013840408064424992
145,137,-0.0338742770254612,-0.01612839102745056,-999.9946899414062,-0.004004495684057474,0.0010472788708284497,-0.0013840408064424992
169,137,-0.0338742770254612,-0.01612839102745056,-999.9946899414062,-0.004004495684057474,0.0010472788708284497,-0.0013840408064424992
268,138,0.009284373372793198,-0.028331786394119263,-999.990478515625,-0.0040875584818422794,-0.007555428892374039,-0.01941249705851078
256,138,0.009284373372793198,-0.028331786394119263,-999.990478515625,-0.0040875584818422794,-0.007555428892374039,-0.01941249705851078
267,138,0.009284373372793198,-0.028331786394119263,-999.990478515625,-0.0040875584818422794,-0.007555428892374039,-0.01941249705851078
261,138,0.009284373372793198,-0.028331786394119263,-999.990478515625,-0.0040875584818422794,-0.007555428892374039,-0.01941249705851078
199,138,0.009284373372793198,-0.028331786394119263,-999.990478515625,-0.0040875584818422794,-0.007555428892374039,-0.01941249705851078
187,138,0.009284373372793198,-0.028331786394119263,-999.990478515625,-0.0040875584818422794,-0.007555428892374039,-0.01941249705851078
198,138,0.009284373372793198,-0.028331786394119263,-999.990478515625,-0.0040875584818422794,-0.007555428892374039,-0.01941249705851078
192,138,0.009284373372793198,-0.028331786394119263,-999.990478515625,-0.0040875584818422794,-0.007555428892374039,-0.01941249705851078
223,139,-0.012176183052361012,-0.0019078957848250866,-1000.007080078125,-0.014479603618383408,-0.0032789218239486217,0.004003800917416811
235,139,-0.012176183052361012,-0.0019078957848250866,-1000.007080078125,-0.014479603618383408,-0.0032789218239486217,0.004003800917416811
243,139,-0.012176183052361012,-0.0019078957848250866,-1000.007080078125,-0.014479603618383408,-0.0032789218239486217,0.004003800917416811
208,139,-0.012176183052361012,-0.0019078957848250866,-1000.007080078125,-0.014479603618383408,-0.0032789218239486217,0.004003800917416811
154,139,-0.012176183052361012,-0.0019078957848250866,-1000.007080078125,-0.014479603618383408,-0.0032789218239486217,0.004003800917416811
166,139,-0.012176183052361012,-0.0019078957848250866,-1000.007080078125,-0.014479603618383408,-0.0032789218239486217,0.004003800917416811
174,139,-0.012176183052361012,-0.0019078957848250866,-1000.007080078125,-0.014479603618383408,-0.0032789218239486217,0.004003800917416811
139,139,-0.012176183052361012,-0.0019078957848250866,-1000.007080078125,-0.014479603618383408,-0.0032789218239486217,0.004003800917416811
238,140,-0.025593070313334465,0.007931185886263847,-1000.0078735351562,-0.00014849667786620557,-0.0005596479750238359,-0.0058168936520814896
214,140,-0.025593070313334465,0.007931185886263847,-1000.0078735351562,-0.00014849667786620557,-0.0005596479750238359,-0.0058168936520814896
226,140,-0.025593070313334465,0.007931185886263847,-1000.0078735351562,-0.00014849667786620557,-0.0005596479750238359,-0.0058168936520814896
246,140,-0.025593070313334465,0.007931185886263847,-1000.0078735351562,-0.00014849667786620557,-0.0005596479750238359,-0.0058168936520814896
169,140,-0.025593070313334465,0.007931185886263847,-1000.0078735351562,-0.00014849667786620557,-0.0005596479750238359,-0.0058168936520814896
145,140,-0.025593070313334465,0.007931185886263847,-1000.0078735351562,-0.00014849667786620557,-0.0005596479750238359,-0.0058168936520814896
157,140,-0.025593070313334465,0.007931185886263847,-1000.0078735351562,-0.00014849667786620557,-0.0005596479750238359,-0.0058168936520814896
177,140,-0.025593070313334465,0.007931185886263847,-1000.0078735351562,-0.00014849667786620557,-0.0005596479750238359,-0.0058168936520814896
246,141,-0.02410224638879299,-0.0188742745667696,-999.9921875,0.008450292982161045,0.0039110868237912655,0.0005503346328623593
226,141,-0.02410224638879299,-0.0188742745667696,-999.9921875,0.008450292982161045,0.0039110868237912655,0.0005503346328623593
213,141,-0.02410224638879299,-0.0188742745667696,-999.9921875,0.008450292982161045,0.0039110868237912655,0.0005503346328623593
239,141,-0.02410224638879299,-0.0188742745667696,-999.9921875,0.008450292982161045,0.0039110868237912655,0.0005503346328623593
177,141,-0.02410224638879299,-0.0188742745667696,-999.9921875,0.008450292982161045,0.0039110868237912655,0.0005503346328623593
157,141,-0.02410224638879299,-0.0188742745667696,-999.9921875,0.008450292982161045,0.0039110868237912655,0.0005503346328623593
144,141,-0.02410224638879299,-0.0188742745667696,-999.9921875,0.008450292982161045,0.0039110868237912655,0.0005503346328623593
170,141,-0.02410224638879299,-0.0188742745667696,-999.9921875,0.008450292982161045,0.0039110868237912655,0.0005503346328623593
239,142,-0.014841628260910511,-0.033389363437891006,-1000.0073852539062,0.013242335990071297,-0.0004374126438051462,0.0002632910618558526
213,142,-0.014841628260910511,-0.033389363437891006,-1000.0073852539062,0.013242335990071297,-0.0004374126438051462,0.0002632910618558526
212,142,-0.014841628260910511,-0.033389363437891006,-1000.0073852539062,0.013242335990071297,-0.0004374126438051462,0.0002632910618558526
240,142,-0.014841628260910511,-0.033389363437891006,-1000.0073852539062,0.013242335990071297,-0.0004374126438051462,0.0002632910618558526
170,142,-0.014841628260910511,-0.033389363437891006,-1000.0073852539062,0.013242335990071297,-0.0004374126438051462,0.0002632910618558526
144,142,-0.014841628260910511,-0.033389363437891006,-1000.0073852539062,0.013242335990071297,-0.0004374126438051462,0.0002632910618558526
143,142,-0.014841628260910511,-0.033389363437891006,-1000.0073852539062,0.013242335990071297,-0.0004374126438051462,0.0002632910618558526
171,142,-0.014841628260910511,-0.033389363437891006,-1000.0073852539062,0.013242335990071297,-0.0004374126438051462,0.0002632910618558526
240,143,-0.003482530592009425,-0.016317522153258324,-999.9942626953125,-0.0027459892444312572,0.00471644988283515,-0.0019690056797116995
212,143,-0.003482530592009425,-0.016317522153258324,-999.9942626953125,-0.0027459892444312572,0.00471644988283515,-0.0019690056797116995
225,143,-0.003482530592009425,-0.016317522153258324,-999.9942626953125,-0.0027459892444312572,0.00471644988283515,-0.0019690056797116995
245,143,-0.003482530592009425,-0.016317522153258324,-999.9942626953125,-0.0027459892444312572,0.00471644988283515,-0.0019690056797116995
171,143,-0.003482530592009425,-0.016317522153258324,-999.9942626953125,-0.0027459892444312572,0.00471644988283515,-0.0019690056797116995
143,143,-0.003482530592009425,-0.016317522153258324,-999.9942626953125,-0.0027459892444312572,0.00471644988283515,-0.0019690056797116995
156,143,-0.003482530592009425,-0.016317522153258324,-999.9942626953125,-0.0027459892444312572,0.00471644988283515,-0.0019690056797116995
176,143,-0.003482530592009425,-0.016317522153258324,-999.9942626953125,-0.0027459892444312572,0.00471644988283515,-0.0019690056797116995
245,144,-0.0007311165099963546,-0.013872810639441013,-1000.0049438476562,-0.002116647083312273,-0.010153286159038544,0.0005626141210086644
225,144,-0.0007311165099963546,-0.013872810639441013,-1000.0049438476562,-0.002116647083312273,-0.010153286159038544,0.0005626141210086644
211,144,-0.0007311165099963546,-0.013872810639441013,-1000.0049438476562,-0.002116647083312273,-0.010153286159038544,0.0005626141210086644
241,144,-0.0007311165099963546,-0.013872810639441013,-1000.0049438476562,-0.002116647083312273,-0.010153286159038544,0.0005626141210086644
176,144,-0.0007311165099963546,-0.013872810639441013,-1000.0049438476562,-0.002116647083312273,-0.010153286159038544,0.0005626141210086644
156,144,-0.0007311165099963546,-0.013872810639441013,-1000.0049438476562,-0.002116647083312273,-0.010153286159038544,0.0005626141210086644
142,144,-0.0007311165099963546,-0.013872810639441013,-1000.0049438476562,-0.002116647083312273,-0.010153286159038544,0.0005626141210086644
172,144,-0.0007311165099963546,-0.013872810639441013,-1000.0049438476562,-0.002116647083312273,-0.010153286159038544,0.0005626141210086644
265,145,-0.04218228533864021,-0.04565110802650452,-1000.0006103515625,-0.0180549006909132,-0.005186496768146753,-0.005463525652885437
210,145,-0.04218228533864021,-0.04565110802650452,-1000.0006103515625,-0.0180549006909132,-0.005186496768146753,-0.005463525652885437
209,145,-0.04218228533864021,-0.04565110802650452,-1000.0006103515625,-0.0180549006909132,-0.005186496768146753,-0.005463525652885437
266,145,-0.04218228533864021,-0.04565110802650452,-1000.0006103515625,-0.0180549006909132,-0.005186496768146753,-0.005463525652885437
196,145,-0.04218228533864021,-0.04565110802650452,-1000.0006103515625,-0.0180549006909132,-0.005186496768146753,-0.005463525652885437
141,145,-0.04218228533864021,-0.04565110802650452,-1000.0006103515625,-0.0180549006909132,-0.005186496768146753,-0.005463525652885437
140,145,-0.04218228533864021,-0.04565110802650452,-1000.0006103515625,-0.0180549006909132,-0.005186496768146753,-0.005463525652885437
197,145,-0.04218228533864021,-0.04565110802650452,-1000.0006103515625,-0.0180549006909132,-0.005186496768146753,-0.005463525652885437
244,146,0.002112923888489604,-0.011678781360387802,-999.9950561523438,-0.0009482692694291472,0.00037043046904727817,-0.0003044579643756151
224,146,0.002112923888489604,-0.011678781360387802,-999.9950561523438,-0.0009482692694291472,0.00037043046904727817,-0.0003044579643756151
208,146,0.002112923888489604,-0.011678781360387802,-999.9950561523438,-0.0009482692694291472,0.00037043046904727817,-0.0003044579643756151
243,146,0.002112923888489604,-0.011678781360387802,-999.9950561523438,-0.0009482692694291472,0.00037043046904727817,-0.0003044579643756151
175,146,0.002112923888489604,-0.011678781360387802,-999.9950561523438,-0.0009482692694291472,0.00037043046904727817,-0.0003044579643756151
155,146,0.002112923888489604,-0.011678781360387802,-999.9950561523438,-0.0009482692694291472,0.00037043046904727817,-0.0003044579643756151
139,146,0.002112923888489604,-0.011678781360387802,-999.9950561523438,-0.0009482692694291472,0.00037043046904727817,-0.0003044579643756151
174,146,0.002112923888489604,-0.011678781360387802,-999.9950561523438,-0.0009482692694291472,0.00037043046904727817,-0.0003044579643756151
267,147,0.04453125223517418,0.07544812560081482,-999.9826049804688,0.014845702797174454,-0.007855542004108429,-0.0278573390096426
243,147,0.04453125223517418,0.07544812560081482,-999.9826049804688,0.014845702797174454,-0.007855542004108429,-0.0278573390096426
235,147,0.04453125223517418,0.07544812560081482,-999.9826049804688,0.014845702797174454,-0.007855542004108429,-0.0278573390096426
250,147,0.04453125223517418,0.07544812560081482,-999.9826049804688,0.014845702797174454,-0.007855542004108429,-0.0278573390096426
198,147,0.04453125223517418,0.07544812560081482,-999.9826049804688,0.014845702797174454,-0.007855542004108429,-0.0278573390096426
174,147,0.04453125223517418,0.07544812560081482,-999.9826049804688,0.014845702797174454,-0.007855542004108429,-0.0278573390096426
166,147,0.04453125223517418,0.07544812560081482,-999.9826049804688,0.014845702797174454,-0.007855542004108429,-0.0278573390096426
181,147,0.04453125223517418,0.07544812560081482,-999.9826049804688,0.014845702797174454,-0.007855542004108429,-0.0278573390096426
266,148,0.022406699135899544,0.05526547133922577,-999.9889526367188,0.007134315557777882,0.016030097380280495,-0.011970353312790394
244,148,0.022406699135899544,0.05526547133922577,-999.9889526367188,0.007134315557777882,0.016030097380280495,-0.011970353312790394
256,148,0.022406699135899544,0.05526547133922577,-999.9889526367188,0.007134315557777882,0.016030097380280495,-0.011970353312790394
242,148,0.022406699135899544,0.05526547133922577,-999.9889526367188,0.007134315557777882,0.016030097380280495,-0.011970353312790394
197,148,0.022406699135899544,0.05526547133922577,-999.9889526367188,0.007134315557777882,0.016030097380280495,-0.011970353312790394
175,148,0.022406699135899544,0.05526547133922577,-999.9889526367188,0.007134315557777882,0.016030097380280495,-0.011970353312790394
187,148,0.022406699135899544,0.05526547133922577,-999.9889526367188,0.007134315557777882,0.016030097380280495,-0.011970353312790394
173,148,0.022406699135899544,0.05526547133922577,-999.9889526367188,0.007134315557777882,0.016030097380280495,-0.011970353312790394
241,149,-0.024119114503264427,-0.030886895954608917,-999.9979248046875,-0.022608360275626183,0.011355584487318993,-0.005448590032756329
211,149,-0.024119114503264427,-0.030886895954608917,-999.9979248046875,-0.022608360275626183,0.011355584487318993,-0.005448590032756329
210,149,-0.024119114503264427,-0.030886895954608917,-999.9979248046875,-0.022608360275626183,0.011355584487318993,-0.005448590032756329
265,149,-0.024119114503264427,-0.030886895954608917,-999.9979248046875,-0.022608360275626183,0.011355584487318993,-0.005448590032756329
172,149,-0.024119114503264427,-0.030886895954608917,-999.9979248046875,-0.022608360275626183,0.011355584487318993,-0.005448590032756329
142,149,-0.024119114503264427,-0.030886895954608917,-999.9979248046875,-0.022608360275626183,0.011355584487318993,-0.005448590032756329
141,149,-0.024119114503264427,-0.030886895954608917,-999.9979248046875,-0.022608360275626183,0.011355584487318993,-0.005448590032756329
196,149,-0.024119114503264427,-0.030886895954608917,-999.9979248046875,-0.022608360275626183,0.011355584487318993,-0.005448590032756329
250,150,-0.011887136846780777,-0.06414298713207245,-1000.0123291015625,0.005060568917542696,0.01770559325814247,-0.003981014247983694
235,150,-0.011887136846780777,-0.06414298713207245,-1000.0123291015625,0.005060568917542696,0.01770559325814247,-0.003981014247983694
232,150,-0.011887136846780777,-0.06414298713207245,-1000.0123291015625,0.005060568917542696,0.01770559325814247,-0.003981014247983694
276,150,-0.011887136846780777,-0.06414298713207245,-1000.0123291015625,0.005060568917542696,0.01770559325814247,-0.003981014247983694
181,150,-0.011887136846780777,-0.06414298713207245,-1000.0123291015625,0.005060568917542696,0.01770559325814247,-0.003981014247983694
166,150,-0.011887136846780777,-0.06414298713207245,-1000.0123291015625,0.005060568917542696,0.01770559325814247,-0.003981014247983694
163,150,-0.011887136846780777,-0.06414298713207245,-1000.0123291015625,0.005060568917542696,0.01770559325814247,-0.003981014247983694
207,150,-0.011887136846780777,-0.06414298713207245,-1000.0123291015625,0.005060568917542696,0.01770559325814247,-0.003981014247983694
261,151,0.011465007439255714,0.025465218350291252,-999.9979858398438,0.01874210685491562,-0.0036702246870845556,-0.029393550008535385
276,151,0.011465007439255714,0.025465218350291252,-999.9979858398438,0.01874210685491562,-0.0036702246870845556,-0.029393550008535385
252,151,0.011465007439255714,0.025465218350291252,-999.9979858398438,0.01874210685491562,-0.0036702246870845556,-0.029393550008535385
260,151,0.011465007439255714,0.025465218350291252,-999.9979858398438,0.01874210685491562,-0.0036702246870845556,-0.029393550008535385
192,151,0.011465007439255714,0.025465218350291252,-999.9979858398438,0.01874210685491562,-0.0036702246870845556,-0.029393550008535385
207,151,0.011465007439255714,0.025465218350291252,-999.9979858398438,0.01874210685491562,-0.0036702246870845556,-0.029393550008535385
183,151,0.011465007439255714,0.025465218350291252,-999.9979858398438,0.01874210685491562,-0.0036702246870845556,-0.029393550008535385
191,151,0.011465007439255714,0.025465218350291252,-999.9979858398438,0.01874210685491562,-0.0036702246870845556,-0.029393550008535385
231,152,-0.00811956636607647,0.03357650712132454,-1000.010009765625,-0.021029187366366386,-0.001306885969825089,-0.03653954342007637
248,152,-0.00811956636607647,0.03357650712132454,-1000.010009765625,-0.021029187366366386,-0.001306885969825089,-0.03653954342007637
270,152,-0.00811956636607647,0.03357650712132454,-1000.010009765625,-0.021029187366366386,-0.001306885969825089,-0.03653954342007637
255,152,-0.00811956636607647,0.03357650712132454,-1000.010009765625,-0.021029187366366386,-0.001306885969825089,-0.03653954342007637
162,152,-0.00811956636607647,0.03357650712132454,-1000.010009765625,-0.021029187366366386,-0.001306885969825089,-0.03653954342007637
179,152,-0.00811956636607647,0.03357650712132454,-1000.010009765625,-0.021029187366366386,-0.001306885969825089,-0.03653954342007637
201,152,-0.00811956636607647,0.03357650712132454,-1000.010009765625,-0.021029187366366386,-0.001306885969825089,-0.03653954342007637
186,152,-0.00811956636607647,0.03357650712132454,-1000.010009765625,-0.021029187366366386,-0.001306885969825089,-0.03653954342007637
255,153,0.004907005466520786,-0.06735225021839142,-1000.0101318359375,-0.0041142418049275875,-0.007908685132861137,0.042685169726610184
270,153,0.004907005466520786,-0.06735225021839142,-1000.0101318359375,-0.0041142418049275875,-0.007908685132861137,0.042685169726610184
254,153,0.004907005466520786,-0.06735225021839142,-1000.0101318359375,-0.0041142418049275875,-0.007908685132861137,0.042685169726610184
260,153,0.004907005466520786,-0.06735225021839142,-1000.0101318359375,-0.0041142418049275875,-0.007908685132861137,0.042685169726610184
186,153,0.004907005466520786,-0.06735225021839142,-1000.0101318359375,-0.0041142418049275875,-0.007908685132861137,0.042685169726610184
201,153,0.004907005466520786,-0.06735225021839142,-1000.0101318359375,-0.0041142418049275875,-0.007908685132861137,0.042685169726610184
185,153,0.004907005466520786,-0.06735225021839142,-1000.0101318359375,-0.0041142418049275875,-0.007908685132861137,0.042685169726610184
191,153,0.004907005466520786,-0.06735225021839142,-1000.0101318359375,-0.0041142418049275875,-0.007908685132861137,0.042685169726610184
257,154,0.0408744215965271,0.04934963956475258,-999.9960327148438,0.01945856399834156,0.0036150217056274414,0.0024956786073744297
245,154,0.0408744215965271,0.04934963956475258,-999.9960327148438,0.01945856399834156,0.0036150217056274414,0.0024956786073744297
241,154,0.0408744215965271,0.04934963956475258,-999.9960327148438,0.01945856399834156,0.0036150217056274414,0.0024956786073744297
265,154,0.0408744215965271,0.04934963956475258,-999.9960327148438,0.01945856399834156,0.0036150217056274414,0.0024956786073744297
188,154,0.0408744215965271,0.04934963956475258,-999.9960327148438,0.01945856399834156,0.0036150217056274414,0.0024956786073744297
176,154,0.0408744215965271,0.04934963956475258,-999.9960327148438,0.01945856399834156,0.0036150217056274414,0.0024956786073744297
172,154,0.0408744215965271,0.04934963956475258,-999.9960327148438,0.01945856399834156,0.0036150217056274414,0.0024956786073744297
196,154,0.0408744215965271,0.04934963956475258,-999.9960327148438,0.01945856399834156,0.0036150217056274414,0.0024956786073744297
255,155,-0.03190438076853752,-0.059767961502075195,-1000.0079345703125,0.013742872513830662,-0.03109424188733101,0.0022046512458473444
260,155,-0.03190438076853752,-0.059767961502075195,-1000.0079345703125,0.013742872513830662,-0.03109424188733101,0.0022046512458473444
252,155,-0.03190438076853752,-0.059767961502075195,-1000.0079345703125,0.013742872513830662,-0.03109424188733101,0.0022046512458473444
269,155,-0.03190438076853752,-0.059767961502075195,-1000.0079345703125,0.013742872513830662,-0.03109424188733101,0.0022046512458473444
186,155,-0.03190438076853752,-0.059767961502075195,-1000.0079345703125,0.013742872513830662,-0.03109424188733101,0.0022046512458473444
191,155,-0.03190438076853752,-0.059767961502075195,-1000.0079345703125,0.013742872513830662,-0.03109424188733101,0.0022046512458473444
183,155,-0.03190438076853752,-0.059767961502075195,-1000.0079345703125,0.013742872513830662,-0.03109424188733101,0.0022046512458473444
200,155,-0.03190438076853752,-0.059767961502075195,-1000.0079345703125,0.013742872513830662,-0.03109424188733101,0.0022046512458473444
233,156,0.010944059118628502,0.07764463871717453,-999.9974975585938,-0.005625767167657614,-0.025132793933153152,-0.01932441256940365
264,156,0.010944059118628502,0.07764463871717453,-999.9974975585938,-0.005625767167657614,-0.025132793933153152,-0.01932441256940365
271,156,0.010944059118628502,0.07764463871717453,-999.9974975585938,-0.005625767167657614,-0.025132793933153152,-0.01932441256940365
254,156,0.010944059118628502,0.07764463871717453,-999.9974975585938,-0.005625767167657614,-0.025132793933153152,-0.01932441256940365
164,156,0.010944059118628502,0.07764463871717453,-999.9974975585938,-0.005625767167657614,-0.025132793933153152,-0.01932441256940365
195,156,0.010944059118628502,0.07764463871717453,-999.9974975585938,-0.005625767167657614,-0.025132793933153152,-0.01932441256940365
202,156,0.010944059118628502,0.07764463871717453,-999.9974975585938,-0.005625767167657614,-0.025132793933153152,-0.01932441256940365
185,156,0.010944059118628502,0.07764463871717453,-999.9974975585938,-0.005625767167657614,-0.025132793933153152,-0.01932441256940365
275,157,-0.03693792596459389,-0.039446327835321426,-999.9996337890625,-0.013302081264555454,0.0037334710359573364,-0.02822050265967846
257,157,-0.03693792596459389,-0.039446327835321426,-999.9996337890625,-0.013302081264555454,0.0037334710359573364,-0.02822050265967846
242,157,-0.03693792596459389,-0.039446327835321426,-999.9996337890625,-0.013302081264555454,0.0037334710359573364,-0.02822050265967846
263,157,-0.03693792596459389,-0.039446327835321426,-999.9996337890625,-0.013302081264555454,0.0037334710359573364,-0.02822050265967846
206,157,-0.03693792596459389,-0.039446327835321426,-999.9996337890625,-0.013302081264555454,0.0037334710359573364,-0.02822050265967846
188,157,-0.03693792596459389,-0.039446327835321426,-999.9996337890625,-0.013302081264555454,0.0037334710359573364,-0.02822050265967846
173,157,-0.03693792596459389,-0.039446327835321426,-999.9996337890625,-0.013302081264555454,0.0037334710359573364,-0.02822050265967846
194,157,-0.03693792596459389,-0.039446327835321426,-999.9996337890625,-0.013302081264555454,0.0037334710359573364,-0.02822050265967846
251,158,-0.05065684765577316,0.011452740989625454,-1000.0068969726562,0.000324990221997723,0.02518177218735218,0.016953207552433014
273,158,-0.05065684765577316,0.011452740989625454,-1000.0068969726562,0.000324990221997723,0.02518177218735218,0.016953207552433014
258,158,-0.05065684765577316,0.011452740989625454,-1000.0068969726562,0.000324990221997723,0.02518177218735218,0.016953207552433014
262,158,-0.05065684765577316,0.011452740989625454,-1000.0068969726562,0.000324990221997723,0.02518177218735218,0.016953207552433014
182,158,-0.05065684765577316,0.011452740989625454,-1000.0068969726562,0.000324990221997723,0.02518177218735218,0.016953207552433014
204,158,-0.05065684765577316,0.011452740989625454,-1000.0068969726562,0.000324990221997723,0.02518177218735218,0.016953207552433014
189,158,-0.05065684765577316,0.011452740989625454,-1000.0068969726562,0.000324990221997723,0.02518177218735218,0.016953207552433014
193,158,-0.05065684765577316,0.011452740989625454,-1000.0068969726562,0.000324990221997723,0.02518177218735218,0.016953207552433014
274,159,-0.024938898161053658,-0.014517582021653652,-1000.0226440429688,-0.036826491355895996,-0.03650549799203873,-0.002708620624616742
246,159,-0.024938898161053658,-0.014517582021653652,-1000.0226440429688,-0.036826491355895996,-0.03650549799203873,-0.002708620624616742
239,159,-0.024938898161053658,-0.014517582021653652,-1000.0226440429688,-0.036826491355895996,-0.03650549799203873,-0.002708620624616742
253,159,-0.024938898161053658,-0.014517582021653652,-1000.0226440429688,-0.036826491355895996,-0.03650549799203873,-0.002708620624616742
205,159,-0.024938898161053658,-0.014517582021653652,-1000.0226440429688,-0.036826491355895996,-0.03650549799203873,-0.002708620624616742
177,159,-0.024938898161053658,-0.014517582021653652,-1000.0226440429688,-0.036826491355895996,-0.03650549799203873,-0.002708620624616742
170,159,-0.024938898161053658,-0.014517582021653652,-1000.0226440429688,-0.036826491355895996,-0.03650549799203873,-0.002708620624616742
184,159,-0.024938898161053658,-0.014517582021653652,-1000.0226440429688,-0.036826491355895996,-0.03650549799203873,-0.002708620624616742
263,160,0.021247154101729393,-0.017381438985466957,-1000.0027465820312,0.019588017836213112,0.0066867610439658165,0.02774844877421856
262,160,0.021247154101729393,-0.017381438985466957,-1000.0027465820312,0.019588017836213112,0.0066867610439658165,0.02774844877421856
253,160,0.021247154101729393,-0.017381438985466957,-1000.0027465820312,0.019588017836213112,0.0066867610439658165,0.02774844877421856
275,160,0.021247154101729393,-0.017381438985466957,-1000.0027465820312,0.019588017836213112,0.0066867610439658165,0.02774844877421856
194,160,0.021247154101729393,-0.017381438985466957,-1000.0027465820312,0.019588017836213112,0.0066867610439658165,0.02774844877421856
193,160,0.021247154101729393,-0.017381438985466957,-1000.0027465820312,0.019588017836213112,0.0066867610439658165,0.02774844877421856
184,160,0.021247154101729393,-0.017381438985466957,-1000.0027465820312,0.019588017836213112,0.0066867610439658165,0.02774844877421856
206,160,0.021247154101729393,-0.017381438985466957,-1000.0027465820312,0.019588017836213112,0.0066867610439658165,0.02774844877421856
263,161,0.005086295306682587,0.03791271895170212,-999.9928588867188,0.0015852065989747643,0.03942229971289635,0.01872127316892147
268,161,0.005086295306682587,0.03791271895170212,-999.9928588867188,0.0015852065989747643,0.03942229971289635,0.01872127316892147
261,161,0.005086295306682587,0.03791271895170212,-999.9928588867188,0.0015852065989747643,0.03942229971289635,0.01872127316892147
260,161,0.005086295306682587,0.03791271895170212,-999.9928588867188,0.0015852065989747643,0.03942229971289635,0.01872127316892147
194,161,0.005086295306682587,0.03791271895170212,-999.9928588867188,0.0015852065989747643,0.03942229971289635,0.01872127316892147
199,161,0.005086295306682587,0.03791271895170212,-999.9928588867188,0.0015852065989747643,0.03942229971289635,0.01872127316892147
192,161,0.005086295306682587,0.03791271895170212,-999.9928588867188,0.0015852065989747643,0.03942229971289635,0.01872127316892147
191,161,0.005086295306682587,0.03791271895170212,-999.9928588867188,0.0015852065989747643,0.03942229971289635,0.01872127316892147
253,162,-0.05809526890516281,-0.03891477733850479,-1000.0,-2.2433928279497195e-06,0.004237130284309387,-0.04188479483127594
262,162,-0.05809526890516281,-0.03891477733850479,-1000.0,-2.2433928279497195e-06,0.004237130284309387,-0.04188479483127594
258,162,-0.05809526890516281,-0.03891477733850479,-1000.0,-2.2433928279497195e-06,0.004237130284309387,-0.04188479483127594
274,162,-0.05809526890516281,-0.03891477733850479,-1000.0,-2.2433928279497195e-06,0.004237130284309387,-0.04188479483127594
184,162,-0.05809526890516281,-0.03891477733850479,-1000.0,-2.2433928279497195e-06,0.004237130284309387,-0.04188479483127594
193,162,-0.05809526890516281,-0.03891477733850479,-1000.0,-2.2433928279497195e-06,0.004237130284309387,-0.04188479483127594
189,162,-0.05809526890516281,-0.03891477733850479,-1000.0,-2.2433928279497195e-06,0.004237130284309387,-0.04188479483127594
205,162,-0.05809526890516281,-0.03891477733850479,-1000.0,-2.2433928279497195e-06,0.004237130284309387,-0.04188479483127594
264,163,-0.010521860793232918,-0.03341282531619072,-999.9990234375,-0.008717161603271961,-0.0008480566320940852,0.0009234047611244023
218,163,-0.010521860793232918,-0.03341282531619072,-999.9990234375,-0.008717161603271961,-0.0008480566320940852,0.0009234047611244023
217,163,-0.010521860793232918,-0.03341282531619072,-999.9990234375,-0.008717161603271961,-0.0008480566320940852,0.0009234047611244023
234,163,-0.010521860793232918,-0.03341282531619072,-999.9990234375,-0.008717161603271961,-0.0008480566320940852,0.0009234047611244023
195,163,-0.010521860793232918,-0.03341282531619072,-999.9990234375,-0.008717161603271961,-0.0008480566320940852,0.0009234047611244023
149,163,-0.010521860793232918,-0.03341282531619072,-999.9990234375,-0.008717161603271961,-0.0008480566320940852,0.0009234047611244023
148,163,-0.010521860793232918,-0.03341282531619072,-999.9990234375,-0.008717161603271961,-0.0008480566320940852,0.0009234047611244023
165,163,-0.010521860793232918,-0.03341282531619072,-999.9990234375,-0.008717161603271961,-0.0008480566320940852,0.0009234047611244023
266,164,-0.006988191045820713,-0.01920156367123127,-1000.0035400390625,-0.013202283531427383,-0.005038750357925892,0.0007917023613117635
209,164,-0.006988191045820713,-0.01920156367123127,-1000.0035400390625,-0.013202283531427383,-0.005038750357925892,0.0007917023613117635
224,164,-0.006988191045820713,-0.01920156367123127,-1000.0035400390625,-0.013202283531427383,-0.005038750357925892,0.0007917023613117635
244,164,-0.006988191045820713,-0.01920156367123127,-1000.0035400390625,-0.013202283531427383,-0.005038750357925892,0.0007917023613117635
197,164,-0.006988191045820713,-0.01920156367123127,-1000.0035400390625,-0.013202283531427383,-0.005038750357925892,0.0007917023613117635
140,164,-0.006988191045820713,-0.01920156367123127,-1000.0035400390625,-0.013202283531427383,-0.005038750357925892,0.0007917023613117635
155,164,-0.006988191045820713,-0.01920156367123127,-1000.0035400390625,-0.013202283531427383,-0.005038750357925892,0.0007917023613117635
175,164,-0.006988191045820713,-0.01920156367123127,-1000.0035400390625,-0.013202283531427383,-0.005038750357925892,0.0007917023613117635
243,165,-0.01523570530116558,-0.01845247484743595,-1000.0101928710938,0.011408221907913685,0.011573158204555511,0.015072053298354149
267,165,-0.01523570530116558,-0.01845247484743595,-1000.0101928710938,0.011408221907913685,0.011573158204555511,0.015072053298354149
256,165,-0.01523570530116558,-0.01845247484743595,-1000.0101928710938,0.011408221907913685,0.011573158204555511,0.015072053298354149
244,165,-0.01523570530116558,-0.01845247484743595,-1000.0101928710938,0.011408221907913685,0.011573158204555511,0.015072053298354149
174,165,-0.01523570530116558,-0.01845247484743595,-1000.0101928710938,0.011408221907913685,0.011573158204555511,0.015072053298354149
198,165,-0.01523570530116558,-0.01845247484743595,-1000.0101928710938,0.011408221907913685,0.011573158204555511,0.015072053298354149
187,165,-0.01523570530116558,-0.01845247484743595,-1000.0101928710938,0.011408221907913685,0.011573158204555511,0.015072053298354149
175,165,-0.01523570530116558,-0.01845247484743595,-1000.0101928710938,0.011408221907913685,0.011573158204555511,0.015072053298354149
267,166,-0.03675909712910652,-0.03352577984333038,-1000.0135498046875,-0.02394982986152172,-0.021776193752884865,0.03201693296432495
250,166,-0.03675909712910652,-0.03352577984333038,-1000.0135498046875,-0.02394982986152172,-0.021776193752884865,0.03201693296432495
276,166,-0.03675909712910652,-0.03352577984333038,-1000.0135498046875,-0.02394982986152172,-0.021776193752884865,0.03201693296432495
261,166,-0.03675909712910652,-0.03352577984333038,-1000.0135498046875,-0.02394982986152172,-0.021776193752884865,0.03201693296432495
198,166,-0.03675909712910652,-0.03352577984333038,-1000.0135498046875,-0.02394982986152172,-0.021776193752884865,0.03201693296432495
181,166,-0.03675909712910652,-0.03352577984333038,-1000.0135498046875,-0.02394982986152172,-0.021776193752884865,0.03201693296432495
207,166,-0.03675909712910652,-0.03352577984333038,-1000.0135498046875,-0.02394982986152172,-0.021776193752884865,0.03201693296432495
192,166,-0.03675909712910652,-0.03352577984333038,-1000.0135498046875,-0.02394982986152172,-0.021776193752884865,0.03201693296432495
269,167,0.03641738370060921,0.10829463601112366,-999.978515625,0.009901294484734535,0.030503425747156143,0.01374442595988512
230,167,0.03641738370060921,0.10829463601112366,-999.978515625,0.009901294484734535,0.030503425747156143,0.01374442595988512
231,167,0.03641738370060921,0.10829463601112366,-999.978515625,0.009901294484734535,0.030503425747156143,0.01374442595988512
255,167,0.03641738370060921,0.10829463601112366,-999.978515625,0.009901294484734535,0.030503425747156143,0.01374442595988512
200,167,0.03641738370060921,0.10829463601112366,-999.978515625,0.009901294484734535,0.030503425747156143,0.01374442595988512
161,167,0.03641738370060921,0.10829463601112366,-999.978515625,0.009901294484734535,0.030503425747156143,0.01374442595988512
162,167,0.03641738370060921,0.10829463601112366,-999.978515625,0.009901294484734535,0.030503425747156143,0.01374442595988512
186,167,0.03641738370060921,0.10829463601112366,-999.978515625,0.009901294484734535,0.030503425747156143,0.01374442595988512
270,168,0.03335346654057503,0.06423284113407135,-999.98583984375,0.019347362220287323,0.012280184775590897,-0.011091089807450771
248,168,0.03335346654057503,0.06423284113407135,-999.98583984375,0.019347362220287323,0.012280184775590897,-0.011091089807450771
233,168,0.03335346654057503,0.06423284113407135,-999.98583984375,0.019347362220287323,0.012280184775590897,-0.011091089807450771
254,168,0.03335346654057503,0.06423284113407135,-999.98583984375,0.019347362220287323,0.012280184775590897,-0.011091089807450771
201,168,0.03335346654057503,0.06423284113407135,-999.98583984375,0.019347362220287323,0.012280184775590897,-0.011091089807450771
179,168,0.03335346654057503,0.06423284113407135,-999.98583984375,0.019347362220287323,0.012280184775590897,-0.011091089807450771
164,168,0.03335346654057503,0.06423284113407135,-999.98583984375,0.019347362220287323,0.012280184775590897,-0.011091089807450771
185,168,0.03335346654057503,0.06423284113407135,-999.98583984375,0.019347362220287323,0.012280184775590897,-0.011091089807450771
272,169,0.013226584531366825,-0.026017170399427414,-1000.009765625,-0.00498318113386631,-0.01095530390739441,-0.0029294712003320456
247,169,0.013226584531366825,-0.026017170399427414,-1000.009765625,-0.00498318113386631,-0.01095530390739441,-0.0029294712003320456
236,169,0.013226584531366825,-0.026017170399427414,-1000.009765625,-0.00498318113386631,-0.01095530390739441,-0.0029294712003320456
251,169,0.013226584531366825,-0.026017170399427414,-1000.009765625,-0.00498318113386631,-0.01095530390739441,-0.0029294712003320456
203,169,0.013226584531366825,-0.026017170399427414,-1000.009765625,-0.00498318113386631,-0.01095530390739441,-0.0029294712003320456
178,169,0.013226584531366825,-0.026017170399427414,-1000.009765625,-0.00498318113386631,-0.01095530390739441,-0.0029294712003320456
167,169,0.013226584531366825,-0.026017170399427414,-1000.009765625,-0.00498318113386631,-0.01095530390739441,-0.0029294712003320456
182,169,0.013226584531366825,-0.026017170399427414,-1000.009765625,-0.00498318113386631,-0.01095530390739441,-0.0029294712003320456
273,170,0.022937407717108727,-0.02617638371884823,-1000.0255737304688,-0.013411097228527069,-0.04396308213472366,-0.008640874177217484
237,170,0.022937407717108727,-0.02617638371884823,-1000.0255737304688,-0.013411097228527069,-0.04396308213472366,-0.008640874177217484
238,170,0.022937407717108727,-0.02617638371884823,-1000.0255737304688,-0.013411097228527069,-0.04396308213472366,-0.008640874177217484
258,170,0.022937407717108727,-0.02617638371884823,-1000.0255737304688,-0.013411097228527069,-0.04396308213472366,-0.008640874177217484
204,170,0.022937407717108727,-0.02617638371884823,-1000.0255737304688,-0.013411097228527069,-0.04396308213472366,-0.008640874177217484
168,170,0.022937407717108727,-0.02617638371884823,-1000.0255737304688,-0.013411097228527069,-0.04396308213472366,-0.008640874177217484
169,170,0.022937407717108727,-0.02617638371884823,-1000.0255737304688,-0.013411097228527069,-0.04396308213472366,-0.008640874177217484
189,170,0.022937407717108727,-0.02617638371884823,-1000.0255737304688,-0.013411097228527069,-0.04396308213472366,-0.008640874177217484
275,171,-0.03482774272561073,-0.007631246466189623,-1000.0078735351562,-0.014900695532560349,-0.004945333115756512,0.005248903296887875
240,171,-0.03482774272561073,-0.007631246466189623,-1000.0078735351562,-0.014900695532560349,-0.004945333115756512,0.005248903296887875
245,171,-0.03482774272561073,-0.007631246466189623,-1000.0078735351562,-0.014900695532560349,-0.004945333115756512,0.005248903296887875
257,171,-0.03482774272561073,-0.007631246466189623,-1000.0078735351562,-0.014900695532560349,-0.004945333115756512,0.005248903296887875
206,171,-0.03482774272561073,-0.007631246466189623,-1000.0078735351562,-0.014900695532560349,-0.004945333115756512,0.005248903296887875
171,171,-0.03482774272561073,-0.007631246466189623,-1000.0078735351562,-0.014900695532560349,-0.004945333115756512,0.005248903296887875
176,171,-0.03482774272561073,-0.007631246466189623,-1000.0078735351562,-0.014900695532560349,-0.004945333115756512,0.005248903296887875
188,171,-0.03482774272561073,-0.007631246466189623,-1000.0078735351562,-0.014900695532560349,-0.004945333115756512,0.005248903296887875
300,172,0.01305662002414465,0.062035009264945984,-1000.0015869140625,0.005992793012410402,0.0015909341163933277,-0.001860902993939817
289,172,0.01305662002414465,0.062035009264945984,-1000.0015869140625,0.005992793012410402,0.0015909341163933277,-0.001860902993939817
288,172,0.01305662002414465,0.062035009264945984,-1000.0015869140625,0.005992793012410402,0.0015909341163933277,-0.001860902993939817
317,172,0.01305662002414465,0.062035009264945984,-1000.0015869140625,0.005992793012410402,0.0015909341163933277,-0.001860902993939817
231,172,0.01305662002414465,0.062035009264945984,-1000.0015869140625,0.005992793012410402,0.0015909341163933277,-0.001860902993939817
220,172,0.01305662002414465,0.062035009264945984,-1000.0015869140625,0.005992793012410402,0.0015909341163933277,-0.001860902993939817
219,172,0.01305662002414465,0.062035009264945984,-1000.0015869140625,0.005992793012410402,0.0015909341163933277,-0.001860902993939817
248,172,0.01305662002414465,0.062035009264945984,-1000.0015869140625,0.005992793012410402,0.0015909341163933277,-0.001860902993939817
317,173,0.01576133444905281,0.05968238040804863,-999.99951171875,-0.00704935472458601,0.001975765684619546,-0.011312131769955158
288,173,0.01576133444905281,0.05968238040804863,-999.99951171875,-0.00704935472458601,0.001975765684619546,-0.011312131769955158
297,173,0.01576133444905281,0.05968238040804863,-999.99951171875,-0.00704935472458601,0.001975765684619546,-0.011312131769955158
302,173,0.01576133444905281,0.05968238040804863,-999.99951171875,-0.00704935472458601,0.001975765684619546,-0.011312131769955158
248,173,0.01576133444905281,0.05968238040804863,-999.99951171875,-0.00704935472458601,0.001975765684619546,-0.011312131769955158
219,173,0.01576133444905281,0.05968238040804863,-999.99951171875,-0.00704935472458601,0.001975765684619546,-0.011312131769955158
228,173,0.01576133444905281,0.05968238040804863,-999.99951171875,-0.00704935472458601,0.001975765684619546,-0.011312131769955158
233,173,0.01576133444905281,0.05968238040804863,-999.99951171875,-0.00704935472458601,0.001975765684619546,-0.011312131769955158
298,174,0.0002887962618842721,-0.002802631352096796,-999.9951171875,-0.009018195793032646,0.0065934606827795506,0.0015948034124448895
318,174,0.0002887962618842721,-0.002802631352096796,-999.9951171875,-0.009018195793032646,0.0065934606827795506,0.0015948034124448895
301,174,0.0002887962618842721,-0.002802631352096796,-999.9951171875,-0.009018195793032646,0.0065934606827795506,0.0015948034124448895
291,174,0.0002887962618842721,-0.002802631352096796,-999.9951171875,-0.009018195793032646,0.0065934606827795506,0.0015948034124448895
229,174,0.0002887962618842721,-0.002802631352096796,-999.9951171875,-0.009018195793032646,0.0065934606827795506,0.0015948034124448895
249,174,0.0002887962618842721,-0.002802631352096796,-999.9951171875,-0.009018195793032646,0.0065934606827795506,0.0015948034124448895
232,174,0.0002887962618842721,-0.002802631352096796,-999.9951171875,-0.009018195793032646,0.0065934606827795506,0.0015948034124448895
222,174,0.0002887962618842721,-0.002802631352096796,-999.9951171875,-0.009018195793032646,0.0065934606827795506,0.0015948034124448895
289,175,0.015321413055062294,0.060539111495018005,-999.99560546875,-0.016680169850587845,0.009089342318475246,-0.00701248599216342
300,175,0.015321413055062294,0.060539111495018005,-999.99560546875,-0.016680169850587845,0.009089342318475246,-0.00701248599216342
299,175,0.015321413055062294,0.060539111495018005,-999.99560546875,-0.016680169850587845,0.009089342318475246,-0.00701248599216342
290,175,0.015321413055062294,0.060539111495018005,-999.99560546875,-0.016680169850587845,0.009089342318475246,-0.00701248599216342
220,175,0.015321413055062294,0.060539111495018005,-999.99560546875,-0.016680169850587845,0.009089342318475246,-0.00701248599216342
231,175,0.015321413055062294,0.060539111495018005,-999.99560546875,-0.016680169850587845,0.009089342318475246,-0.00701248599216342
230,175,0.015321413055062294,0.060539111495018005,-999.99560546875,-0.016680169850587845,0.009089342318475246,-0.00701248599216342
221,175,0.015321413055062294,0.060539111495018005,-999.99560546875,-0.016680169850587845,0.009089342318475246,-0.00701248599216342
328,176,0.016261328011751175,0.011591087095439434,-999.9948120117188,0.008796832524240017,0.00597479147836566,-0.017319198697805405
341,176,0.016261328011751175,0.011591087095439434,-999.9948120117188,0.008796832524240017,0.00597479147836566,-0.017319198697805405
320,176,0.016261328011751175,0.011591087095439434,-999.9948120117188,0.008796832524240017,0.00597479147836566,-0.017319198697805405
331,176,0.016261328011751175,0.011591087095439434,-999.9948120117188,0.008796832524240017,0.00597479147836566,-0.017319198697805405
259,176,0.016261328011751175,0.011591087095439434,-999.9948120117188,0.008796832524240017,0.00597479147836566,-0.017319198697805405
272,176,0.016261328011751175,0.011591087095439434,-999.9948120117188,0.008796832524240017,0.00597479147836566,-0.017319198697805405
251,176,0.016261328011751175,0.011591087095439434,-999.9948120117188,0.008796832524240017,0.00597479147836566,-0.017319198697805405
262,176,0.016261328011751175,0.011591087095439434,-999.9948120117188,0.008796832524240017,0.00597479147836566,-0.017319198697805405
344,177,-0.08049437403678894,-0.09367390722036362,-1000.0158081054688,-0.006204249802976847,-0.007342095021158457,0.002537483349442482
322,177,-0.08049437403678894,-0.09367390722036362,-1000.0158081054688,-0.006204249802976847,-0.007342095021158457,0.002537483349442482
308,177,-0.08049437403678894,-0.09367390722036362,-1000.0158081054688,-0.006204249802976847,-0.007342095021158457,0.002537483349442482
309,177,-0.08049437403678894,-0.09367390722036362,-1000.0158081054688,-0.006204249802976847,-0.007342095021158457,0.002537483349442482
275,177,-0.08049437403678894,-0.09367390722036362,-1000.0158081054688,-0.006204249802976847,-0.007342095021158457,0.002537483349442482
253,177,-0.08049437403678894,-0.09367390722036362,-1000.0158081054688,-0.006204249802976847,-0.007342095021158457,0.002537483349442482
239,177,-0.08049437403678894,-0.09367390722036362,-1000.0158081054688,-0.006204249802976847,-0.007342095021158457,0.002537483349442482
240,177,-0.08049437403678894,-0.09367390722036362,-1000.0158081054688,-0.006204249802976847,-0.007342095021158457,0.002537483349442482
332,178,-0.030056549236178398,-0.04787732660770416,-1000.007568359375,0.010132383555173874,0.018703456968069077,0.021115563809871674
329,178,-0.030056549236178398,-0.04787732660770416,-1000.007568359375,0.010132383555173874,0.018703456968069077,0.021115563809871674
328,178,-0.030056549236178398,-0.04787732660770416,-1000.007568359375,0.010132383555173874,0.018703456968069077,0.021115563809871674
331,178,-0.030056549236178398,-0.04787732660770416,-1000.007568359375,0.010132383555173874,0.018703456968069077,0.021115563809871674
263,178,-0.030056549236178398,-0.04787732660770416,-1000.007568359375,0.010132383555173874,0.018703456968069077,0.021115563809871674
260,178,-0.030056549236178398,-0.04787732660770416,-1000.007568359375,0.010132383555173874,0.018703456968069077,0.021115563809871674
259,178,-0.030056549236178398,-0.04787732660770416,-1000.007568359375,0.010132383555173874,0.018703456968069077,0.021115563809871674
262,178,-0.030056549236178398,-0.04787732660770416,-1000.007568359375,0.010132383555173874,0.018703456968069077,0.021115563809871674
323,179,0.05457640439271927,0.08800513297319412,-999.9916381835938,0.015725864097476006,-0.027923371642827988,-0.017056481912732124
340,179,0.05457640439271927,0.08800513297319412,-999.9916381835938,0.015725864097476006,-0.027923371642827988,-0.017056481912732124
328,179,0.05457640439271927,0.08800513297319412,-999.9916381835938,0.015725864097476006,-0.027923371642827988,-0.017056481912732124
329,179,0.05457640439271927,0.08800513297319412,-999.9916381835938,0.015725864097476006,-0.027923371642827988,-0.017056481912732124
254,179,0.05457640439271927,0.08800513297319412,-999.9916381835938,0.015725864097476006,-0.027923371642827988,-0.017056481912732124
271,179,0.05457640439271927,0.08800513297319412,-999.9916381835938,0.015725864097476006,-0.027923371642827988,-0.017056481912732124
259,179,0.05457640439271927,0.08800513297319412,-999.9916381835938,0.015725864097476006,-0.027923371642827988,-0.017056481912732124
260,179,0.05457640439271927,0.08800513297319412,-999.9916381835938,0.015725864097476006,-0.027923371642827988,-0.017056481912732124
303,180,-0.015282245352864265,-0.029751252382993698,-1000.0040893554688,-0.008879166096448898,-0.006709352135658264,0.013024650514125824
316,180,-0.015282245352864265,-0.029751252382993698,-1000.0040893554688,-0.008879166096448898,-0.006709352135658264,0.013024650514125824
341,180,-0.015282245352864265,-0.029751252382993698,-1000.0040893554688,-0.008879166096448898,-0.006709352135658264,0.013024650514125824
328,180,-0.015282245352864265,-0.029751252382993698,-1000.0040893554688,-0.008879166096448898,-0.006709352135658264,0.013024650514125824
234,180,-0.015282245352864265,-0.029751252382993698,-1000.0040893554688,-0.008879166096448898,-0.006709352135658264,0.013024650514125824
247,180,-0.015282245352864265,-0.029751252382993698,-1000.0040893554688,-0.008879166096448898,-0.006709352135658264,0.013024650514125824
272,180,-0.015282245352864265,-0.029751252382993698,-1000.0040893554688,-0.008879166096448898,-0.006709352135658264,0.013024650514125824
259,180,-0.015282245352864265,-0.029751252382993698,-1000.0040893554688,-0.008879166096448898,-0.006709352135658264,0.013024650514125824
343,181,-0.12139714509248734,-0.06288124620914459,-1000.028564453125,-0.02971126325428486,-0.04138392582535744,-0.03784314543008804
327,181,-0.12139714509248734,-0.06288124620914459,-1000.028564453125,-0.02971126325428486,-0.04138392582535744,-0.03784314543008804
307,181,-0.12139714509248734,-0.06288124620914459,-1000.028564453125,-0.02971126325428486,-0.04138392582535744,-0.03784314543008804
315,181,-0.12139714509248734,-0.06288124620914459,-1000.028564453125,-0.02971126325428486,-0.04138392582535744,-0.03784314543008804
274,181,-0.12139714509248734,-0.06288124620914459,-1000.028564453125,-0.02971126325428486,-0.04138392582535744,-0.03784314543008804
258,181,-0.12139714509248734,-0.06288124620914459,-1000.028564453125,-0.02971126325428486,-0.04138392582535744,-0.03784314543008804
238,181,-0.12139714509248734,-0.06288124620914459,-1000.028564453125,-0.02971126325428486,-0.04138392582535744,-0.03784314543008804
246,181,-0.12139714509248734,-0.06288124620914459,-1000.028564453125,-0.02971126325428486,-0.04138392582535744,-0.03784314543008804
337,182,0.02821424975991249,0.048581432551145554,-999.9846801757812,0.014463069848716259,0.03832489997148514,-0.016321858391165733
332,182,0.02821424975991249,0.048581432551145554,-999.9846801757812,0.014463069848716259,0.03832489997148514,-0.016321858391165733
311,182,0.02821424975991249,0.048581432551145554,-999.9846801757812,0.014463069848716259,0.03832489997148514,-0.016321858391165733
325,182,0.02821424975991249,0.048581432551145554,-999.9846801757812,0.014463069848716259,0.03832489997148514,-0.016321858391165733
268,182,0.02821424975991249,0.048581432551145554,-999.9846801757812,0.014463069848716259,0.03832489997148514,-0.016321858391165733
263,182,0.02821424975991249,0.048581432551145554,-999.9846801757812,0.014463069848716259,0.03832489997148514,-0.016321858391165733
242,182,0.02821424975991249,0.048581432551145554,-999.9846801757812,0.014463069848716259,0.03832489997148514,-0.016321858391165733
256,182,0.02821424975991249,0.048581432551145554,-999.9846801757812,0.014463069848716259,0.03832489997148514,-0.016321858391165733
311,183,-0.057127438485622406,-0.035448234528303146,-999.9990844726562,-0.03428874909877777,-0.00023563337163068354,-0.02459271252155304
326,183,-0.057127438485622406,-0.035448234528303146,-999.9990844726562,-0.03428874909877777,-0.00023563337163068354,-0.02459271252155304
334,183,-0.057127438485622406,-0.035448234528303146,-999.9990844726562,-0.03428874909877777,-0.00023563337163068354,-0.02459271252155304
335,183,-0.057127438485622406,-0.035448234528303146,-999.9990844726562,-0.03428874909877777,-0.00023563337163068354,-0.02459271252155304
242,183,-0.057127438485622406,-0.035448234528303146,-999.9990844726562,-0.03428874909877777,-0.00023563337163068354,-0.02459271252155304
257,183,-0.057127438485622406,-0.035448234528303146,-999.9990844726562,-0.03428874909877777,-0.00023563337163068354,-0.02459271252155304
265,183,-0.057127438485622406,-0.035448234528303146,-999.9990844726562,-0.03428874909877777,-0.00023563337163068354,-0.02459271252155304
266,183,-0.057127438485622406,-0.035448234528303146,-999.9990844726562,-0.03428874909877777,-0.00023563337163068354,-0.02459271252155304
318,184,-0.0009308482403866947,0.019005440175533295,-999.9790649414062,0.05164765194058418,-0.010222477838397026,0.025228044018149376
299,184,-0.0009308482403866947,0.019005440175533295,-999.9790649414062,0.05164765194058418,-0.010222477838397026,0.025228044018149376
338,184,-0.0009308482403866947,0.019005440175533295,-999.9790649414062,0.05164765194058418,-0.010222477838397026,0.025228044018149376
321,184,-0.0009308482403866947,0.019005440175533295,-999.9790649414062,0.05164765194058418,-0.010222477838397026,0.025228044018149376
249,184,-0.0009308482403866947,0.019005440175533295,-999.9790649414062,0.05164765194058418,-0.010222477838397026,0.025228044018149376
230,184,-0.0009308482403866947,0.019005440175533295,-999.9790649414062,0.05164765194058418,-0.010222477838397026,0.025228044018149376
269,184,-0.0009308482403866947,0.019005440175533295,-999.9790649414062,0.05164765194058418,-0.010222477838397026,0.025228044018149376
252,184,-0.0009308482403866947,0.019005440175533295,-999.9790649414062,0.05164765194058418,-0.010222477838397026,0.025228044018149376
345,185,-0.03326646238565445,-0.08379493653774261,-1000.0196533203125,0.0035776295699179173,-0.006707591935992241,-0.019681748002767563
301,185,-0.03326646238565445,-0.08379493653774261,-1000.0196533203125,0.0035776295699179173,-0.006707591935992241,-0.019681748002767563
318,185,-0.03326646238565445,-0.08379493653774261,-1000.0196533203125,0.0035776295699179173,-0.006707591935992241,-0.019681748002767563
321,185,-0.03326646238565445,-0.08379493653774261,-1000.0196533203125,0.0035776295699179173,-0.006707591935992241,-0.019681748002767563
276,185,-0.03326646238565445,-0.08379493653774261,-1000.0196533203125,0.0035776295699179173,-0.006707591935992241,-0.019681748002767563
232,185,-0.03326646238565445,-0.08379493653774261,-1000.0196533203125,0.0035776295699179173,-0.006707591935992241,-0.019681748002767563
249,185,-0.03326646238565445,-0.08379493653774261,-1000.0196533203125,0.0035776295699179173,-0.006707591935992241,-0.019681748002767563
252,185,-0.03326646238565445,-0.08379493653774261,-1000.0196533203125,0.0035776295699179173,-0.006707591935992241,-0.019681748002767563
305,186,-0.05212458595633507,-0.04740031436085701,-1000.0210571289062,-0.007671753875911236,-0.014814697206020355,0.007920091971755028
306,186,-0.05212458595633507,-0.04740031436085701,-1000.0210571289062,-0.007671753875911236,-0.014814697206020355,0.007920091971755028
342,186,-0.05212458595633507,-0.04740031436085701,-1000.0210571289062,-0.007671753875911236,-0.014814697206020355,0.007920091971755028
320,186,-0.05212458595633507,-0.04740031436085701,-1000.0210571289062,-0.007671753875911236,-0.014814697206020355,0.007920091971755028
236,186,-0.05212458595633507,-0.04740031436085701,-1000.0210571289062,-0.007671753875911236,-0.014814697206020355,0.007920091971755028
237,186,-0.05212458595633507,-0.04740031436085701,-1000.0210571289062,-0.007671753875911236,-0.014814697206020355,0.007920091971755028
273,186,-0.05212458595633507,-0.04740031436085701,-1000.0210571289062,-0.007671753875911236,-0.014814697206020355,0.007920091971755028
251,186,-0.05212458595633507,-0.04740031436085701,-1000.0210571289062,-0.007671753875911236,-0.014814697206020355,0.007920091971755028
290,187,0.02671040967106819,0.06286506354808807,-1000.0038452148438,-0.02187086082994938,0.0006968114757910371,0.0017125478480011225
299,187,0.02671040967106819,0.06286506354808807,-1000.0038452148438,-0.02187086082994938,0.0006968114757910371,0.0017125478480011225
318,187,0.02671040967106819,0.06286506354808807,-1000.0038452148438,-0.02187086082994938,0.0006968114757910371,0.0017125478480011225
298,187,0.02671040967106819,0.06286506354808807,-1000.0038452148438,-0.02187086082994938,0.0006968114757910371,0.0017125478480011225
221,187,0.02671040967106819,0.06286506354808807,-1000.0038452148438,-0.02187086082994938,0.0006968114757910371,0.0017125478480011225
230,187,0.02671040967106819,0.06286506354808807,-1000.0038452148438,-0.02187086082994938,0.0006968114757910371,0.0017125478480011225
249,187,0.02671040967106819,0.06286506354808807,-1000.0038452148438,-0.02187086082994938,0.0006968114757910371,0.0017125478480011225
229,187,0.02671040967106819,0.06286506354808807,-1000.0038452148438,-0.02187086082994938,0.0006968114757910371,0.0017125478480011225
287,188,0.025074372068047523,0.0757715106010437,-999.9978637695312,0.010931013152003288,-0.0056948233395814896,-0.0021409429609775543
333,188,0.025074372068047523,0.0757715106010437,-999.9978637695312,0.010931013152003288,-0.0056948233395814896,-0.0021409429609775543
302,188,0.025074372068047523,0.0757715106010437,-999.9978637695312,0.010931013152003288,-0.0056948233395814896,-0.0021409429609775543
297,188,0.025074372068047523,0.0757715106010437,-999.9978637695312,0.010931013152003288,-0.0056948233395814896,-0.0021409429609775543
218,188,0.025074372068047523,0.0757715106010437,-999.9978637695312,0.010931013152003288,-0.0056948233395814896,-0.0021409429609775543
264,188,0.025074372068047523,0.0757715106010437,-999.9978637695312,0.010931013152003288,-0.0056948233395814896,-0.0021409429609775543
233,188,0.025074372068047523,0.0757715106010437,-999.9978637695312,0.010931013152003288,-0.0056948233395814896,-0.0021409429609775543
228,188,0.025074372068047523,0.0757715106010437,-999.9978637695312,0.010931013152003288,-0.0056948233395814896,-0.0021409429609775543
303,189,0.023943565785884857,-0.0036079720593988895,-999.9984741210938,0.007819848135113716,-0.001781961997039616,-0.0017557682003825903
286,189,0.023943565785884857,-0.0036079720593988895,-999.9984741210938,0.007819848135113716,-0.001781961997039616,-0.0017557682003825903
296,189,0.023943565785884857,-0.0036079720593988895,-999.9984741210938,0.007819848135113716,-0.001781961997039616,-0.0017557682003825903
316,189,0.023943565785884857,-0.0036079720593988895,-999.9984741210938,0.007819848135113716,-0.001781961997039616,-0.0017557682003825903
234,189,0.023943565785884857,-0.0036079720593988895,-999.9984741210938,0.007819848135113716,-0.001781961997039616,-0.0017557682003825903
217,189,0.023943565785884857,-0.0036079720593988895,-999.9984741210938,0.007819848135113716,-0.001781961997039616,-0.0017557682003825903
227,189,0.023943565785884857,-0.0036079720593988895,-999.9984741210938,0.007819848135113716,-0.001781961997039616,-0.0017557682003825903
247,189,0.023943565785884857,-0.0036079720593988895,-999.9984741210938,0.007819848135113716,-0.001781961997039616,-0.0017557682003825903
304,190,0.00683220149949193,0.008199525997042656,-1000.005615234375,0.005621038842946291,-0.0018459935672581196,-0.0011303434148430824
292,190,0.00683220149949193,0.008199525997042656,-1000.005615234375,0.005621038842946291,-0.0018459935672581196,-0.0011303434148430824
291,190,0.00683220149949193,0.008199525997042656,-1000.005615234375,0.005621038842946291,-0.0018459935672581196,-0.0011303434148430824
301,190,0.00683220149949193,0.008199525997042656,-1000.005615234375,0.005621038842946291,-0.0018459935672581196,-0.0011303434148430824
235,190,0.00683220149949193,0.008199525997042656,-1000.005615234375,0.005621038842946291,-0.0018459935672581196,-0.0011303434148430824
223,190,0.00683220149949193,0.008199525997042656,-1000.005615234375,0.005621038842946291,-0.0018459935672581196,-0.0011303434148430824
222,190,0.00683220149949193,0.008199525997042656,-1000.005615234375,0.005621038842946291,-0.0018459935672581196,-0.0011303434148430824
232,190,0.00683220149949193,0.008199525997042656,-1000.005615234375,0.005621038842946291,-0.0018459935672581196,-0.0011303434148430824
316,191,0.010626721195876598,0.003027695696800947,-1000.001953125,-0.003610198153182864,0.0017952753696590662,0.0005042031989432871
296,191,0.010626721195876598,0.003027695696800947,-1000.001953125,-0.003610198153182864,0.0017952753696590662,0.0005042031989432871
285,191,0.010626721195876598,0.003027695696800947,-1000.001953125,-0.003610198153182864,0.0017952753696590662,0.0005042031989432871
305,191,0.010626721195876598,0.003027695696800947,-1000.001953125,-0.003610198153182864,0.0017952753696590662,0.0005042031989432871
247,191,0.010626721195876598,0.003027695696800947,-1000.001953125,-0.003610198153182864,0.0017952753696590662,0.0005042031989432871
227,191,0.010626721195876598,0.003027695696800947,-1000.001953125,-0.003610198153182864,0.0017952753696590662,0.0005042031989432871
216,191,0.010626721195876598,0.003027695696800947,-1000.001953125,-0.003610198153182864,0.0017952753696590662,0.0005042031989432871
236,191,0.010626721195876598,0.003027695696800947,-1000.001953125,-0.003610198153182864,0.0017952753696590662,0.0005042031989432871
340,192,-0.036410439759492874,-0.026474500074982643,-1000.00146484375,-0.03328876569867134,0.00021339523664209992,-0.003920855466276407
333,192,-0.036410439759492874,-0.026474500074982643,-1000.00146484375,-0.03328876569867134,0.00021339523664209992,-0.003920855466276407
303,192,-0.036410439759492874,-0.026474500074982643,-1000.00146484375,-0.03328876569867134,0.00021339523664209992,-0.003920855466276407
328,192,-0.036410439759492874,-0.026474500074982643,-1000.00146484375,-0.03328876569867134,0.00021339523664209992,-0.003920855466276407
271,192,-0.036410439759492874,-0.026474500074982643,-1000.00146484375,-0.03328876569867134,0.00021339523664209992,-0.003920855466276407
264,192,-0.036410439759492874,-0.026474500074982643,-1000.00146484375,-0.03328876569867134,0.00021339523664209992,-0.003920855466276407
234,192,-0.036410439759492874,-0.026474500074982643,-1000.00146484375,-0.03328876569867134,0.00021339523664209992,-0.003920855466276407
259,192,-0.036410439759492874,-0.026474500074982643,-1000.00146484375,-0.03328876569867134,0.00021339523664209992,-0.003920855466276407
305,193,0.022782456129789352,-0.006454136222600937,-999.996337890625,-0.007960199378430843,-0.0046407668851315975,-0.004743396770209074
285,193,0.022782456129789352,-0.006454136222600937,-999.996337890625,-0.007960199378430843,-0.0046407668851315975,-0.004743396770209074
284,193,0.022782456129789352,-0.006454136222600937,-999.996337890625,-0.007960199378430843,-0.0046407668851315975,-0.004743396770209074
306,193,0.022782456129789352,-0.006454136222600937,-999.996337890625,-0.007960199378430843,-0.0046407668851315975,-0.004743396770209074
236,193,0.022782456129789352,-0.006454136222600937,-999.996337890625,-0.007960199378430843,-0.0046407668851315975,-0.004743396770209074
216,193,0.022782456129789352,-0.006454136222600937,-999.996337890625,-0.007960199378430843,-0.0046407668851315975,-0.004743396770209074
215,193,0.022782456129789352,-0.006454136222600937,-999.996337890625,-0.007960199378430843,-0.0046407668851315975,-0.004743396770209074
237,193,0.022782456129789352,-0.006454136222600937,-999.996337890625,-0.007960199378430843,-0.0046407668851315975,-0.004743396770209074
306,194,0.0504557304084301,0.0229404978454113,-1000.005126953125,0.006034007761627436,-0.002271958626806736,0.0024518719874322414
284,194,0.0504557304084301,0.0229404978454113,-1000.005126953125,0.006034007761627436,-0.002271958626806736,0.0024518719874322414
283,194,0.0504557304084301,0.0229404978454113,-1000.005126953125,0.006034007761627436,-0.002271958626806736,0.0024518719874322414
307,194,0.0504557304084301,0.0229404978454113,-1000.005126953125,0.006034007761627436,-0.002271958626806736,0.0024518719874322414
237,194,0.0504557304084301,0.0229404978454113,-1000.005126953125,0.006034007761627436,-0.002271958626806736,0.0024518719874322414
215,194,0.0504557304084301,0.0229404978454113,-1000.005126953125,0.006034007761627436,-0.002271958626806736,0.0024518719874322414
214,194,0.0504557304084301,0.0229404978454113,-1000.005126953125,0.006034007761627436,-0.002271958626806736,0.0024518719874322414
238,194,0.0504557304084301,0.0229404978454113,-1000.005126953125,0.006034007761627436,-0.002271958626806736,0.0024518719874322414
337,195,-0.012010383419692516,0.040802691131830215,-1000.0106201171875,0.006853883154690266,0.007892812602221966,0.0248391292989254
325,195,-0.012010383419692516,0.040802691131830215,-1000.0106201171875,0.006853883154690266,0.007892812602221966,0.0248391292989254
336,195,-0.012010383419692516,0.040802691131830215,-1000.0106201171875,0.006853883154690266,0.007892812602221966,0.0248391292989254
330,195,-0.012010383419692516,0.040802691131830215,-1000.0106201171875,0.006853883154690266,0.007892812602221966,0.0248391292989254
268,195,-0.012010383419692516,0.040802691131830215,-1000.0106201171875,0.006853883154690266,0.007892812602221966,0.0248391292989254
256,195,-0.012010383419692516,0.040802691131830215,-1000.0106201171875,0.006853883154690266,0.007892812602221966,0.0248391292989254
267,195,-0.012010383419692516,0.040802691131830215,-1000.0106201171875,0.006853883154690266,0.007892812602221966,0.0248391292989254
261,195,-0.012010383419692516,0.040802691131830215,-1000.0106201171875,0.006853883154690266,0.007892812602221966,0.0248391292989254
292,196,0.016568254679441452,0.002885587280616164,-999.9942016601562,0.01962089166045189,0.0019378721481189132,-0.004051901865750551
304,196,0.016568254679441452,0.002885587280616164,-999.9942016601562,0.01962089166045189,0.0019378721481189132,-0.004051901865750551
312,196,0.016568254679441452,0.002885587280616164,-999.9942016601562,0.01962089166045189,0.0019378721481189132,-0.004051901865750551
277,196,0.016568254679441452,0.002885587280616164,-999.9942016601562,0.01962089166045189,0.0019378721481189132,-0.004051901865750551
223,196,0.016568254679441452,0.002885587280616164,-999.9942016601562,0.01962089166045189,0.0019378721481189132,-0.004051901865750551
235,196,0.016568254679441452,0.002885587280616164,-999.9942016601562,0.01962089166045189,0.0019378721481189132,-0.004051901865750551
243,196,0.016568254679441452,0.002885587280616164,-999.9942016601562,0.01962089166045189,0.0019378721481189132,-0.004051901865750551
208,196,0.016568254679441452,0.002885587280616164,-999.9942016601562,0.01962089166045189,0.0019378721481189132,-0.004051901865750551
307,197,0.035337626934051514,-0.009061187505722046,-999.9927978515625,-0.0012485572369769216,0.0012809686595574021,0.005511454306542873
283,197,0.035337626934051514,-0.009061187505722046,-999.9927978515625,-0.0012485572369769216,0.0012809686595574021,0.005511454306542873
295,197,0.035337626934051514,-0.009061187505722046,-999.9927978515625,-0.0012485572369769216,0.0012809686595574021,0.005511454306542873
315,197,0.035337626934051514,-0.009061187505722046,-999.9927978515625,-0.0012485572369769216,0.0012809686595574021,0.005511454306542873
238,197,0.035337626934051514,-0.009061187505722046,-999.9927978515625,-0.0012485572369769216,0.0012809686595574021,0.005511454306542873
214,197,0.035337626934051514,-0.009061187505722046,-999.9927978515625,-0.0012485572369769216,0.0012809686595574021,0.005511454306542873
226,197,0.035337626934051514,-0.009061187505722046,-999.9927978515625,-0.0012485572369769216,0.0012809686595574021,0.005511454306542873
246,197,0.035337626934051514,-0.009061187505722046,-999.9927978515625,-0.0012485572369769216,0.0012809686595574021,0.005511454306542873
315,198,0.03729453310370445,0.028476284816861153,-1000.007080078125,-0.013095750473439693,-0.00528357969596982,0.00045141976443119347
295,198,0.03729453310370445,0.028476284816861153,-1000.007080078125,-0.013095750473439693,-0.00528357969596982,0.00045141976443119347
282,198,0.03729453310370445,0.028476284816861153,-1000.007080078125,-0.013095750473439693,-0.00528357969596982,0.00045141976443119347
308,198,0.03729453310370445,0.028476284816861153,-1000.007080078125,-0.013095750473439693,-0.00528357969596982,0.00045141976443119347
246,198,0.03729453310370445,0.028476284816861153,-1000.007080078125,-0.013095750473439693,-0.00528357969596982,0.00045141976443119347
226,198,0.03729453310370445,0.028476284816861153,-1000.007080078125,-0.013095750473439693,-0.00528357969596982,0.00045141976443119347
213,198,0.03729453310370445,0.028476284816861153,-1000.007080078125,-0.013095750473439693,-0.00528357969596982,0.00045141976443119347
239,198,0.03729453310370445,0.028476284816861153,-1000.007080078125,-0.013095750473439693,-0.00528357969596982,0.00045141976443119347
308,199,0.02082652598619461,0.04598941281437874,-999.9930419921875,-0.018308527767658234,0.0019373806426301599,-0.0013217120431363583
282,199,0.02082652598619461,0.04598941281437874,-999.9930419921875,-0.018308527767658234,0.0019373806426301599,-0.0013217120431363583
281,199,0.02082652598619461,0.04598941281437874,-999.9930419921875,-0.018308527767658234,0.0019373806426301599,-0.0013217120431363583
309,199,0.02082652598619461,0.04598941281437874,-999.9930419921875,-0.018308527767658234,0.0019373806426301599,-0.0013217120431363583
239,199,0.02082652598619461,0.04598941281437874,-999.9930419921875,-0.018308527767658234,0.0019373806426301599,-0.0013217120431363583
213,199,0.02082652598619461,0.04598941281437874,-999.9930419921875,-0.018308527767658234,0.0019373806426301599,-0.0013217120431363583
212,199,0.02082652598619461,0.04598941281437874,-999.9930419921875,-0.018308527767658234,0.0019373806426301599,-0.0013217120431363583
240,199,0.02082652598619461,0.04598941281437874,-999.9930419921875,-0.018308527767658234,0.0019373806426301599,-0.0013217120431363583
309,200,0.0052518355660140514,0.025042781606316566,-1000.0056762695312,0.003051872830837965,-0.006480769719928503,0.0030165966600179672
281,200,0.0052518355660140514,0.025042781606316566,-1000.0056762695312,0.003051872830837965,-0.006480769719928503,0.0030165966600179672
294,200,0.0052518355660140514,0.025042781606316566,-1000.0056762695312,0.003051872830837965,-0.006480769719928503,0.0030165966600179672
314,200,0.0052518355660140514,0.025042781606316566,-1000.0056762695312,0.003051872830837965,-0.006480769719928503,0.0030165966600179672
240,200,0.0052518355660140514,0.025042781606316566,-1000.0056762695312,0.003051872830837965,-0.006480769719928503,0.0030165966600179672
212,200,0.0052518355660140514,0.025042781606316566,-1000.0056762695312,0.003051872830837965,-0.006480769719928503,0.0030165966600179672
225,200,0.0052518355660140514,0.025042781606316566,-1000.0056762695312,0.003051872830837965,-0.006480769719928503,0.0030165966600179672
245,200,0.0052518355660140514,0.025042781606316566,-1000.0056762695312,0.003051872830837965,-0.006480769719928503,0.0030165966600179672
314,201,0.0022841214668005705,0.02007528580725193,-999.9951171875,0.0038337651640176773,0.012044443748891354,-0.0016045835800468922
294,201,0.0022841214668005705,0.02007528580725193,-999.9951171875,0.0038337651640176773,0.012044443748891354,-0.0016045835800468922
280,201,0.0022841214668005705,0.02007528580725193,-999.9951171875,0.0038337651640176773,0.012044443748891354,-0.0016045835800468922
310,201,0.0022841214668005705,0.02007528580725193,-999.9951171875,0.0038337651640176773,0.012044443748891354,-0.0016045835800468922
245,201,0.0022841214668005705,0.02007528580725193,-999.9951171875,0.0038337651640176773,0.012044443748891354,-0.0016045835800468922
225,201,0.0022841214668005705,0.02007528580725193,-999.9951171875,0.0038337651640176773,0.012044443748891354,-0.0016045835800468922
211,201,0.0022841214668005705,0.02007528580725193,-999.9951171875,0.0038337651640176773,0.012044443748891354,-0.0016045835800468922
241,201,0.0022841214668005705,0.02007528580725193,-999.9951171875,0.0038337651640176773,0.012044443748891354,-0.0016045835800468922
334,202,0.062400203198194504,0.06781431287527084,-999.998779296875,0.02640802040696144,0.006955643650144339,0.00555559853091836
279,202,0.062400203198194504,0.06781431287527084,-999.998779296875,0.02640802040696144,0.006955643650144339,0.00555559853091836
278,202,0.062400203198194504,0.06781431287527084,-999.998779296875,0.02640802040696144,0.006955643650144339,0.00555559853091836
335,202,0.062400203198194504,0.06781431287527084,-999.998779296875,0.02640802040696144,0.006955643650144339,0.00555559853091836
265,202,0.062400203198194504,0.06781431287527084,-999.998779296875,0.02640802040696144,0.006955643650144339,0.00555559853091836
210,202,0.062400203198194504,0.06781431287527084,-999.998779296875,0.02640802040696144,0.006955643650144339,0.00555559853091836
209,202,0.062400203198194504,0.06781431287527084,-999.998779296875,0.02640802040696144,0.006955643650144339,0.00555559853091836
266,202,0.062400203198194504,0.06781431287527084,-999.998779296875,0.02640802040696144,0.006955643650144339,0.00555559853091836
313,203,-0.0009330635075457394,0.018309973180294037,-1000.00390625,0.0028602781239897013,0.0013437053421512246,-3.577232200768776e-05
293,203,-0.0009330635075457394,0.018309973180294037,-1000.00390625,0.0028602781239897013,0.0013437053421512246,-3.577232200768776e-05
277,203,-0.0009330635075457394,0.018309973180294037,-1000.00390625,0.0028602781239897013,0.0013437053421512246,-3.577232200768776e-05
312,203,-0.0009330635075457394,0.018309973180294037,-1000.00390625,0.0028602781239897013,0.0013437053421512246,-3.577232200768776e-05
244,203,-0.0009330635075457394,0.018309973180294037,-1000.00390625,0.0028602781239897013,0.0013437053421512246,-3.577232200768776e-05
224,203,-0.0009330635075457394,0.018309973180294037,-1000.00390625,0.0028602781239897013,0.0013437053421512246,-3.577232200768776e-05
208,203,-0.0009330635075457394,0.018309973180294037,-1000.00390625,0.0028602781239897013,0.0013437053421512246,-3.577232200768776e-05
243,203,-0.0009330635075457394,0.018309973180294037,-1000.00390625,0.0028602781239897013,0.0013437053421512246,-3.577232200768776e-05
336,204,-0.06494750827550888,-0.10733851790428162,-1000.0230712890625,-0.019998712465167046,0.010057498700916767,0.028950225561857224
312,204,-0.06494750827550888,-0.10733851790428162,-1000.0230712890625,-0.019998712465167046,0.010057498700916767,0.028950225561857224
304,204,-0.06494750827550888,-0.10733851790428162,-1000.0230712890625,-0.019998712465167046,0.010057498700916767,0.028950225561857224
319,204,-0.06494750827550888,-0.10733851790428162,-1000.0230712890625,-0.019998712465167046,0.010057498700916767,0.028950225561857224
267,204,-0.06494750827550888,-0.10733851790428162,-1000.0230712890625,-0.019998712465167046,0.010057498700916767,0.028950225561857224
243,204,-0.06494750827550888,-0.10733851790428162,-1000.0230712890625,-0.019998712465167046,0.010057498700916767,0.028950225561857224
235,204,-0.06494750827550888,-0.10733851790428162,-1000.0230712890625,-0.019998712465167046,0.010057498700916767,0.028950225561857224
250,204,-0.06494750827550888,-0.10733851790428162,-1000.0230712890625,-0.019998712465167046,0.010057498700916767,0.028950225561857224
335,205,-0.03219153359532356,-0.0794471874833107,-1000.0123291015625,-0.010480660013854504,-0.017605729401111603,0.011950282379984856
313,205,-0.03219153359532356,-0.0794471874833107,-1000.0123291015625,-0.010480660013854504,-0.017605729401111603,0.011950282379984856
325,205,-0.03219153359532356,-0.0794471874833107,-1000.0123291015625,-0.010480660013854504,-0.017605729401111603,0.011950282379984856
311,205,-0.03219153359532356,-0.0794471874833107,-1000.0123291015625,-0.010480660013854504,-0.017605729401111603,0.011950282379984856
266,205,-0.03219153359532356,-0.0794471874833107,-1000.0123291015625,-0.010480660013854504,-0.017605729401111603,0.011950282379984856
244,205,-0.03219153359532356,-0.0794471874833107,-1000.0123291015625,-0.010480660013854504,-0.017605729401111603,0.011950282379984856
256,205,-0.03219153359532356,-0.0794471874833107,-1000.0123291015625,-0.010480660013854504,-0.017605729401111603,0.011950282379984856
242,205,-0.03219153359532356,-0.0794471874833107,-1000.0123291015625,-0.010480660013854504,-0.017605729401111603,0.011950282379984856
310,206,0.035756126046180725,0.04584015533328056,-1000.0018310546875,0.03355574235320091,-0.012808771803975105,0.007271946873515844
280,206,0.035756126046180725,0.04584015533328056,-1000.0018310546875,0.03355574235320091,-0.012808771803975105,0.007271946873515844
279,206,0.035756126046180725,0.04584015533328056,-1000.0018310546875,0.03355574235320091,-0.012808771803975105,0.007271946873515844
334,206,0.035756126046180725,0.04584015533328056,-1000.0018310546875,0.03355574235320091,-0.012808771803975105,0.007271946873515844
241,206,0.035756126046180725,0.04584015533328056,-1000.0018310546875,0.03355574235320091,-0.012808771803975105,0.007271946873515844
211,206,0.035756126046180725,0.04584015533328056,-1000.0018310546875,0.03355574235320091,-0.012808771803975105,0.007271946873515844
210,206,0.035756126046180725,0.04584015533328056,-1000.0018310546875,0.03355574235320091,-0.012808771803975105,0.007271946873515844
265,206,0.035756126046180725,0.04584015533328056,-1000.0018310546875,0.03355574235320091,-0.012808771803975105,0.007271946873515844
319,207,0.01788361370563507,0.09305021166801453,-999.9794921875,-0.005884968210011721,-0.021750574931502342,0.007566649932414293
304,207,0.01788361370563507,0.09305021166801453,-999.9794921875,-0.005884968210011721,-0.021750574931502342,0.007566649932414293
301,207,0.01788361370563507,0.09305021166801453,-999.9794921875,-0.005884968210011721,-0.021750574931502342,0.007566649932414293
345,207,0.01788361370563507,0.09305021166801453,-999.9794921875,-0.005884968210011721,-0.021750574931502342,0.007566649932414293
250,207,0.01788361370563507,0.09305021166801453,-999.9794921875,-0.005884968210011721,-0.021750574931502342,0.007566649932414293
235,207,0.01788361370563507,0.09305021166801453,-999.9794921875,-0.005884968210011721,-0.021750574931502342,0.007566649932414293
232,207,0.01788361370563507,0.09305021166801453,-999.9794921875,-0.005884968210011721,-0.021750574931502342,0.007566649932414293
276,207,0.01788361370563507,0.09305021166801453,-999.9794921875,-0.005884968210011721,-0.021750574931502342,0.007566649932414293
330,208,-0.01626385934650898,-0.035930778831243515,-1000.0029907226562,-0.028424033895134926,0.005398932378739119,0.03229392692446709
345,208,-0.01626385934650898,-0.035930778831243515,-1000.0029907226562,-0.028424033895134926,0.005398932378739119,0.03229392692446709
321,208,-0.01626385934650898,-0.035930778831243515,-1000.0029907226562,-0.028424033895134926,0.005398932378739119,0.03229392692446709
329,208,-0.01626385934650898,-0.035930778831243515,-1000.0029907226562,-0.028424033895134926,0.005398932378739119,0.03229392692446709
261,208,-0.01626385934650898,-0.035930778831243515,-1000.0029907226562,-0.028424033895134926,0.005398932378739119,0.03229392692446709
276,208,-0.01626385934650898,-0.035930778831243515,-1000.0029907226562,-0.028424033895134926,0.005398932378739119,0.03229392692446709
252,208,-0.01626385934650898,-0.035930778831243515,-1000.0029907226562,-0.028424033895134926,0.005398932378739119,0.03229392692446709
260,208,-0.01626385934650898,-0.035930778831243515,-1000.0029907226562,-0.028424033895134926,0.005398932378739119,0.03229392692446709
300,209,0.011630471795797348,-0.04801364615559578,-999.982177734375,0.02904050052165985,0.00043481236207298934,0.04285307601094246
317,209,0.011630471795797348,-0.04801364615559578,-999.982177734375,0.02904050052165985,0.00043481236207298934,0.04285307601094246
339,209,0.011630471795797348,-0.04801364615559578,-999.982177734375,0.02904050052165985,0.00043481236207298934,0.04285307601094246
324,209,0.011630471795797348,-0.04801364615559578,-999.982177734375,0.02904050052165985,0.00043481236207298934,0.04285307601094246
231,209,0.011630471795797348,-0.04801364615559578,-999.982177734375,0.02904050052165985,0.00043481236207298934,0.04285307601094246
248,209,0.011630471795797348,-0.04801364615559578,-999.982177734375,0.02904050052165985,0.00043481236207298934,0.04285307601094246
270,209,0.011630471795797348,-0.04801364615559578,-999.982177734375,0.02904050052165985,0.00043481236207298934,0.04285307601094246
255,209,0.011630471795797348,-0.04801364615559578,-999.982177734375,0.02904050052165985,0.00043481236207298934,0.04285307601094246
324,210,-0.0073487120680511,0.08903299272060394,-999.9934692382812,0.006053498014807701,0.009025159291923046,-0.04792313277721405
339,210,-0.0073487120680511,0.08903299272060394,-999.9934692382812,0.006053498014807701,0.009025159291923046,-0.04792313277721405
323,210,-0.0073487120680511,0.08903299272060394,-999.9934692382812,0.006053498014807701,0.009025159291923046,-0.04792313277721405
329,210,-0.0073487120680511,0.08903299272060394,-999.9934692382812,0.006053498014807701,0.009025159291923046,-0.04792313277721405
255,210,-0.0073487120680511,0.08903299272060394,-999.9934692382812,0.006053498014807701,0.009025159291923046,-0.04792313277721405
270,210,-0.0073487120680511,0.08903299272060394,-999.9934692382812,0.006053498014807701,0.009025159291923046,-0.04792313277721405
254,210,-0.0073487120680511,0.08903299272060394,-999.9934692382812,0.006053498014807701,0.009025159291923046,-0.04792313277721405
260,210,-0.0073487120680511,0.08903299272060394,-999.9934692382812,0.006053498014807701,0.009025159291923046,-0.04792313277721405
326,211,-0.05970773100852966,-0.06879314035177231,-1000.006103515625,-0.028109533712267876,-0.005837616510689259,-0.00442653289064765
314,211,-0.05970773100852966,-0.06879314035177231,-1000.006103515625,-0.028109533712267876,-0.005837616510689259,-0.00442653289064765
310,211,-0.05970773100852966,-0.06879314035177231,-1000.006103515625,-0.028109533712267876,-0.005837616510689259,-0.00442653289064765
334,211,-0.05970773100852966,-0.06879314035177231,-1000.006103515625,-0.028109533712267876,-0.005837616510689259,-0.00442653289064765
257,211,-0.05970773100852966,-0.06879314035177231,-1000.006103515625,-0.028109533712267876,-0.005837616510689259,-0.00442653289064765
245,211,-0.05970773100852966,-0.06879314035177231,-1000.006103515625,-0.028109533712267876,-0.005837616510689259,-0.00442653289064765
241,211,-0.05970773100852966,-0.06879314035177231,-1000.006103515625,-0.028109533712267876,-0.005837616510689259,-0.00442653289064765
265,211,-0.05970773100852966,-0.06879314035177231,-1000.006103515625,-0.028109533712267876,-0.005837616510689259,-0.00442653289064765
324,212,0.04431699961423874,0.08593536913394928,-999.9912719726562,-0.01686798222362995,0.03473358973860741,-0.0036952821537852287
329,212,0.04431699961423874,0.08593536913394928,-999.9912719726562,-0.01686798222362995,0.03473358973860741,-0.0036952821537852287
321,212,0.04431699961423874,0.08593536913394928,-999.9912719726562,-0.01686798222362995,0.03473358973860741,-0.0036952821537852287
338,212,0.04431699961423874,0.08593536913394928,-999.9912719726562,-0.01686798222362995,0.03473358973860741,-0.0036952821537852287
255,212,0.04431699961423874,0.08593536913394928,-999.9912719726562,-0.01686798222362995,0.03473358973860741,-0.0036952821537852287
260,212,0.04431699961423874,0.08593536913394928,-999.9912719726562,-0.01686798222362995,0.03473358973860741,-0.0036952821537852287
252,212,0.04431699961423874,0.08593536913394928,-999.9912719726562,-0.01686798222362995,0.03473358973860741,-0.0036952821537852287
269,212,0.04431699961423874,0.08593536913394928,-999.9912719726562,-0.01686798222362995,0.03473358973860741,-0.0036952821537852287
302,213,-0.016540857031941414,-0.11165259033441544,-999.9993286132812,0.006772334687411785,0.027223555371165276,0.0231662355363369
333,213,-0.016540857031941414,-0.11165259033441544,-999.9993286132812,0.006772334687411785,0.027223555371165276,0.0231662355363369
340,213,-0.016540857031941414,-0.11165259033441544,-999.9993286132812,0.006772334687411785,0.027223555371165276,0.0231662355363369
323,213,-0.016540857031941414,-0.11165259033441544,-999.9993286132812,0.006772334687411785,0.027223555371165276,0.0231662355363369
233,213,-0.016540857031941414,-0.11165259033441544,-999.9993286132812,0.006772334687411785,0.027223555371165276,0.0231662355363369
264,213,-0.016540857031941414,-0.11165259033441544,-999.9993286132812,0.006772334687411785,0.027223555371165276,0.0231662355363369
271,213,-0.016540857031941414,-0.11165259033441544,-999.9993286132812,0.006772334687411785,0.027223555371165276,0.0231662355363369
254,213,-0.016540857031941414,-0.11165259033441544,-999.9993286132812,0.006772334687411785,0.027223555371165276,0.0231662355363369
344,214,0.05354127660393715,0.055325984954833984,-1000.0006713867188,0.019329935312271118,-0.004077403340488672,0.031947117298841476
326,214,0.05354127660393715,0.055325984954833984,-1000.0006713867188,0.019329935312271118,-0.004077403340488672,0.031947117298841476
311,214,0.05354127660393715,0.055325984954833984,-1000.0006713867188,0.019329935312271118,-0.004077403340488672,0.031947117298841476
332,214,0.05354127660393715,0.055325984954833984,-1000.0006713867188,0.019329935312271118,-0.004077403340488672,0.031947117298841476
275,214,0.05354127660393715,0.055325984954833984,-1000.0006713867188,0.019329935312271118,-0.004077403340488672,0.031947117298841476
257,214,0.05354127660393715,0.055325984954833984,-1000.0006713867188,0.019329935312271118,-0.004077403340488672,0.031947117298841476
242,214,0.05354127660393715,0.055325984954833984,-1000.0006713867188,0.019329935312271118,-0.004077403340488672,0.031947117298841476
263,214,0.05354127660393715,0.055325984954833984,-1000.0006713867188,0.019329935312271118,-0.004077403340488672,0.031947117298841476
320,215,0.06960693746805191,-0.014222483150660992,-999.9944458007812,-0.00018282598466612399,-0.029617298394441605,-0.01853981427848339
342,215,0.06960693746805191,-0.014222483150660992,-999.9944458007812,-0.00018282598466612399,-0.029617298394441605,-0.01853981427848339
327,215,0.06960693746805191,-0.014222483150660992,-999.9944458007812,-0.00018282598466612399,-0.029617298394441605,-0.01853981427848339
331,215,0.06960693746805191,-0.014222483150660992,-999.9944458007812,-0.00018282598466612399,-0.029617298394441605,-0.01853981427848339
251,215,0.06960693746805191,-0.014222483150660992,-999.9944458007812,-0.00018282598466612399,-0.029617298394441605,-0.01853981427848339
273,215,0.06960693746805191,-0.014222483150660992,-999.9944458007812,-0.00018282598466612399,-0.029617298394441605,-0.01853981427848339
258,215,0.06960693746805191,-0.014222483150660992,-999.9944458007812,-0.00018282598466612399,-0.029617298394441605,-0.01853981427848339
262,215,0.06960693746805191,-0.014222483150660992,-999.9944458007812,-0.00018282598466612399,-0.029617298394441605,-0.01853981427848339
343,216,0.03339081630110741,0.020340746268630028,-999.9772338867188,0.052206043154001236,0.04163607582449913,0.002835349878296256
315,216,0.03339081630110741,0.020340746268630028,-999.9772338867188,0.052206043154001236,0.04163607582449913,0.002835349878296256
308,216,0.03339081630110741,0.020340746268630028,-999.9772338867188,0.052206043154001236,0.04163607582449913,0.002835349878296256
322,216,0.03339081630110741,0.020340746268630028,-999.9772338867188,0.052206043154001236,0.04163607582449913,0.002835349878296256
274,216,0.03339081630110741,0.020340746268630028,-999.9772338867188,0.052206043154001236,0.04163607582449913,0.002835349878296256
246,216,0.03339081630110741,0.020340746268630028,-999.9772338867188,0.052206043154001236,0.04163607582449913,0.002835349878296256
239,216,0.03339081630110741,0.020340746268630028,-999.9772338867188,0.052206043154001236,0.04163607582449913,0.002835349878296256
253,216,0.03339081630110741,0.020340746268630028,-999.9772338867188,0.052206043154001236,0.04163607582449913,0.002835349878296256
332,217,-0.03165549412369728,0.024588918313384056,-999.9970092773438,-0.02821342647075653,-0.0072990539483726025,-0.03154012933373451
331,217,-0.03165549412369728,0.024588918313384056,-999.9970092773438,-0.02821342647075653,-0.0072990539483726025,-0.03154012933373451
322,217,-0.03165549412369728,0.024588918313384056,-999.9970092773438,-0.02821342647075653,-0.0072990539483726025,-0.03154012933373451
344,217,-0.03165549412369728,0.024588918313384056,-999.9970092773438,-0.02821342647075653,-0.0072990539483726025,-0.03154012933373451
263,217,-0.03165549412369728,0.024588918313384056,-999.9970092773438,-0.02821342647075653,-0.0072990539483726025,-0.03154012933373451
262,217,-0.03165549412369728,0.024588918313384056,-999.9970092773438,-0.02821342647075653,-0.0072990539483726025,-0.03154012933373451
253,217,-0.03165549412369728,0.024588918313384056,-999.9970092773438,-0.02821342647075653,-0.0072990539483726025,-0.03154012933373451
275,217,-0.03165549412369728,0.024588918313384056,-999.9970092773438,-0.02821342647075653,-0.0072990539483726025,-0.03154012933373451
332,218,-0.006005256436765194,-0.05285467207431793,-1000.0048828125,-0.0018447738839313388,-0.044692061841487885,-0.020669491961598396
337,218,-0.006005256436765194,-0.05285467207431793,-1000.0048828125,-0.0018447738839313388,-0.044692061841487885,-0.020669491961598396
330,218,-0.006005256436765194,-0.05285467207431793,-1000.0048828125,-0.0018447738839313388,-0.044692061841487885,-0.020669491961598396
329,218,-0.006005256436765194,-0.05285467207431793,-1000.0048828125,-0.0018447738839313388,-0.044692061841487885,-0.020669491961598396
263,218,-0.006005256436765194,-0.05285467207431793,-1000.0048828125,-0.0018447738839313388,-0.044692061841487885,-0.020669491961598396
268,218,-0.006005256436765194,-0.05285467207431793,-1000.0048828125,-0.0018447738839313388,-0.044692061841487885,-0.020669491961598396
261,218,-0.006005256436765194,-0.05285467207431793,-1000.0048828125,-0.0018447738839313388,-0.044692061841487885,-0.020669491961598396
260,218,-0.006005256436765194,-0.05285467207431793,-1000.0048828125,-0.0018447738839313388,-0.044692061841487885,-0.020669491961598396
322,219,0.08343664556741714,0.05346318706870079,-999.9992065429688,0.0004892247379757464,-0.003704871516674757,0.0472664050757885
331,219,0.08343664556741714,0.05346318706870079,-999.9992065429688,0.0004892247379757464,-0.003704871516674757,0.0472664050757885
327,219,0.08343664556741714,0.05346318706870079,-999.9992065429688,0.0004892247379757464,-0.003704871516674757,0.0472664050757885
343,219,0.08343664556741714,0.05346318706870079,-999.9992065429688,0.0004892247379757464,-0.003704871516674757,0.0472664050757885
253,219,0.08343664556741714,0.05346318706870079,-999.9992065429688,0.0004892247379757464,-0.003704871516674757,0.0472664050757885
262,219,0.08343664556741714,0.05346318706870079,-999.9992065429688,0.0004892247379757464,-0.003704871516674757,0.0472664050757885
258,219,0.08343664556741714,0.05346318706870079,-999.9992065429688,0.0004892247379757464,-0.003704871516674757,0.0472664050757885
274,219,0.08343664556741714,0.05346318706870079,-999.9992065429688,0.0004892247379757464,-0.003704871516674757,0.0472664050757885
333,220,0.017467204481363297,0.04967886209487915,-1000.0013427734375,0.013656352646648884,0.00013747139018960297,-0.001555608818307519
287,220,0.017467204481363297,0.04967886209487915,-1000.0013427734375,0.013656352646648884,0.00013747139018960297,-0.001555608818307519
286,220,0.017467204481363297,0.04967886209487915,-1000.0013427734375,0.013656352646648884,0.00013747139018960297,-0.001555608818307519
303,220,0.017467204481363297,0.04967886209487915,-1000.0013427734375,0.013656352646648884,0.00013747139018960297,-0.001555608818307519
264,220,0.017467204481363297,0.04967886209487915,-1000.0013427734375,0.013656352646648884,0.00013747139018960297,-0.001555608818307519
218,220,0.017467204481363297,0.04967886209487915,-1000.0013427734375,0.013656352646648884,0.00013747139018960297,-0.001555608818307519
217,220,0.017467204481363297,0.04967886209487915,-1000.0013427734375,0.013656352646648884,0.00013747139018960297,-0.001555608818307519
234,220,0.017467204481363297,0.04967886209487915,-1000.0013427734375,0.013656352646648884,0.00013747139018960297,-0.001555608818307519
335,221,0.011951668187975883,0.028975049033761024,-999.997314453125,0.019919371232390404,0.004481653217226267,-6.367060268530622e-05
278,221,0.011951668187975883,0.028975049033761024,-999.997314453125,0.019919371232390404,0.004481653217226267,-6.367060268530622e-05
293,221,0.011951668187975883,0.028975049033761024,-999.997314453125,0.019919371232390404,0.004481653217226267,-6.367060268530622e-05
313,221,0.011951668187975883,0.028975049033761024,-999.997314453125,0.019919371232390404,0.004481653217226267,-6.367060268530622e-05
266,221,0.011951668187975883,0.028975049033761024,-999.997314453125,0.019919371232390404,0.004481653217226267,-6.367060268530622e-05
209,221,0.011951668187975883,0.028975049033761024,-999.997314453125,0.019919371232390404,0.004481653217226267,-6.367060268530622e-05
224,221,0.011951668187975883,0.028975049033761024,-999.997314453125,0.019919371232390404,0.004481653217226267,-6.367060268530622e-05
244,221,0.011951668187975883,0.028975049033761024,-999.997314453125,0.019919371232390404,0.004481653217226267,-6.367060268530622e-05
312,222,0.021318385377526283,0.026091979816555977,-999.9862670898438,-0.017406485974788666,-0.014571839943528175,-0.016438771039247513
336,222,0.021318385377526283,0.026091979816555977,-999.9862670898438,-0.017406485974788666,-0.014571839943528175,-0.016438771039247513
325,222,0.021318385377526283,0.026091979816555977,-999.9862670898438,-0.017406485974788666,-0.014571839943528175,-0.016438771039247513
313,222,0.021318385377526283,0.026091979816555977,-999.9862670898438,-0.017406485974788666,-0.014571839943528175,-0.016438771039247513
243,222,0.021318385377526283,0.026091979816555977,-999.9862670898438,-0.017406485974788666,-0.014571839943528175,-0.016438771039247513
267,222,0.021318385377526283,0.026091979816555977,-999.9862670898438,-0.017406485974788666,-0.014571839943528175,-0.016438771039247513
256,222,0.021318385377526283,0.026091979816555977,-999.9862670898438,-0.017406485974788666,-0.014571839943528175,-0.016438771039247513
244,222,0.021318385377526283,0.026091979816555977,-999.9862670898438,-0.017406485974788666,-0.014571839943528175,-0.016438771039247513
336,223,0.0528513602912426,0.04664001613855362,-999.9863891601562,0.033786043524742126,0.025567907840013504,-0.03767923265695572
319,223,0.0528513602912426,0.04664001613855362,-999.9863891601562,0.033786043524742126,0.025567907840013504,-0.03767923265695572
345,223,0.0528513602912426,0.04664001613855362,-999.9863891601562,0.033786043524742126,0.025567907840013504,-0.03767923265695572
330,223,0.0528513602912426,0.04664001613855362,-999.9863891601562,0.033786043524742126,0.025567907840013504,-0.03767923265695572
267,223,0.0528513602912426,0.04664001613855362,-999.9863891601562,0.033786043524742126,0.025567907840013504,-0.03767923265695572
250,223,0.0528513602912426,0.04664001613855362,-999.9863891601562,0.033786043524742126,0.025567907840013504,-0.03767923265695572
276,223,0.0528513602912426,0.04664001613855362,-999.9863891601562,0.033786043524742126,0.025567907840013504,-0.03767923265695572
261,223,0.0528513602912426,0.04664001613855362,-999.9863891601562,0.033786043524742126,0.025567907840013504,-0.03767923265695572
338,224,-0.05299225077033043,-0.1537354588508606,-1000.0289916992188,-0.01306693535298109,-0.034379106014966965,-0.014227415435016155
299,224,-0.05299225077033043,-0.1537354588508606,-1000.0289916992188,-0.01306693535298109,-0.034379106014966965,-0.014227415435016155
300,224,-0.05299225077033043,-0.1537354588508606,-1000.0289916992188,-0.01306693535298109,-0.034379106014966965,-0.014227415435016155
324,224,-0.05299225077033043,-0.1537354588508606,-1000.0289916992188,-0.01306693535298109,-0.034379106014966965,-0.014227415435016155
269,224,-0.05299225077033043,-0.1537354588508606,-1000.0289916992188,-0.01306693535298109,-0.034379106014966965,-0.014227415435016155
230,224,-0.05299225077033043,-0.1537354588508606,-1000.0289916992188,-0.01306693535298109,-0.034379106014966965,-0.014227415435016155
231,224,-0.05299225077033043,-0.1537354588508606,-1000.0289916992188,-0.01306693535298109,-0.034379106014966965,-0.014227415435016155
255,224,-0.05299225077033043,-0.1537354588508606,-1000.0289916992188,-0.01306693535298109,-0.034379106014966965,-0.014227415435016155
339,225,-0.04632967337965965,-0.09178946912288666,-1000.0167846679688,-0.026855774223804474,-0.012361599132418633,0.014406438916921616
317,225,-0.04632967337965965,-0.09178946912288666,-1000.0167846679688,-0.026855774223804474,-0.012361599132418633,0.014406438916921616
302,225,-0.04632967337965965,-0.09178946912288666,-1000.0167846679688,-0.026855774223804474,-0.012361599132418633,0.014406438916921616
323,225,-0.04632967337965965,-0.09178946912288666,-1000.0167846679688,-0.026855774223804474,-0.012361599132418633,0.014406438916921616
270,225,-0.04632967337965965,-0.09178946912288666,-1000.0167846679688,-0.026855774223804474,-0.012361599132418633,0.014406438916921616
248,225,-0.04632967337965965,-0.09178946912288666,-1000.0167846679688,-0.026855774223804474,-0.012361599132418633,0.014406438916921616
233,225,-0.04632967337965965,-0.09178946912288666,-1000.0167846679688,-0.026855774223804474,-0.012361599132418633,0.014406438916921616
254,225,-0.04632967337965965,-0.09178946912288666,-1000.0167846679688,-0.026855774223804474,-0.012361599132418633,0.014406438916921616
341,226,-0.021276798099279404,0.035374511033296585,-999.99169921875,0.004567629192024469,0.014150352217257023,0.0039541954174637794
316,226,-0.021276798099279404,0.035374511033296585,-999.99169921875,0.004567629192024469,0.014150352217257023,0.0039541954174637794
305,226,-0.021276798099279404,0.035374511033296585,-999.99169921875,0.004567629192024469,0.014150352217257023,0.0039541954174637794
320,226,-0.021276798099279404,0.035374511033296585,-999.99169921875,0.004567629192024469,0.014150352217257023,0.0039541954174637794
272,226,-0.021276798099279404,0.035374511033296585,-999.99169921875,0.004567629192024469,0.014150352217257023,0.0039541954174637794
247,226,-0.021276798099279404,0.035374511033296585,-999.99169921875,0.004567629192024469,0.014150352217257023,0.0039541954174637794
236,226,-0.021276798099279404,0.035374511033296585,-999.99169921875,0.004567629192024469,0.014150352217257023,0.0039541954174637794
251,226,-0.021276798099279404,0.035374511033296585,-999.99169921875,0.004567629192024469,0.014150352217257023,0.0039541954174637794
342,227,-0.03831780329346657,0.034724462777376175,-999.976318359375,0.018925361335277557,0.04934424161911011,0.008924785070121288
306,227,-0.03831780329346657,0.034724462777376175,-999.976318359375,0.018925361335277557,0.04934424161911011,0.008924785070121288
307,227,-0.03831780329346657,0.034724462777376175,-999.976318359375,0.018925361335277557,0.04934424161911011,0.008924785070121288
327,227,-0.03831780329346657,0.034724462777376175,-999.976318359375,0.018925361335277557,0.04934424161911011,0.008924785070121288
273,227,-0.03831780329346657,0.034724462777376175,-999.976318359375,0.018925361335277557,0.04934424161911011,0.008924785070121288
237,227,-0.03831780329346657,0.034724462777376175,-999.976318359375,0.018925361335277557,0.04934424161911011,0.008924785070121288
238,227,-0.03831780329346657,0.034724462777376175,-999.976318359375,0.018925361335277557,0.04934424161911011,0.008924785070121288
258,227,-0.03831780329346657,0.034724462777376175,-999.976318359375,0.018925361335277557,0.04934424161911011,0.008924785070121288
344,228,0.05033387616276741,0.010510812513530254,-999.990234375,0.021717751398682594,0.008295025676488876,-0.005018133670091629
309,228,0.05033387616276741,0.010510812513530254,-999.990234375,0.021717751398682594,0.008295025676488876,-0.005018133670091629
314,228,0.05033387616276741,0.010510812513530254,-999.990234375,0.021717751398682594,0.008295025676488876,-0.005018133670091629
326,228,0.05033387616276741,0.010510812513530254,-999.990234375,0.021717751398682594,0.008295025676488876,-0.005018133670091629
275,228,0.05033387616276741,0.010510812513530254,-999.990234375,0.021717751398682594,0.008295025676488876,-0.005018133670091629
240,228,0.05033387616276741,0.010510812513530254,-999.990234375,0.021717751398682594,0.008295025676488876,-0.005018133670091629
245,228,0.05033387616276741,0.010510812513530254,-999.990234375,0.021717751398682594,0.008295025676488876,-0.005018133670091629
257,228,0.05033387616276741,0.010510812513530254,-999.990234375,0.021717751398682594,0.008295025676488876,-0.005018133670091629
369,229,-0.018540222197771072,-0.08652159571647644,-999.9989013671875,-0.007250702939927578,-0.0025283987633883953,0.0021753315813839436
358,229,-0.018540222197771072,-0.08652159571647644,-999.9989013671875,-0.007250702939927578,-0.0025283987633883953,0.0021753315813839436
357,229,-0.018540222197771072,-0.08652159571647644,-999.9989013671875,-0.007250702939927578,-0.0025283987633883953,0.0021753315813839436
386,229,-0.018540222197771072,-0.08652159571647644,-999.9989013671875,-0.007250702939927578,-0.0025283987633883953,0.0021753315813839436
300,229,-0.018540222197771072,-0.08652159571647644,-999.9989013671875,-0.007250702939927578,-0.0025283987633883953,0.0021753315813839436
289,229,-0.018540222197771072,-0.08652159571647644,-999.9989013671875,-0.007250702939927578,-0.0025283987633883953,0.0021753315813839436
288,229,-0.018540222197771072,-0.08652159571647644,-999.9989013671875,-0.007250702939927578,-0.0025283987633883953,0.0021753315813839436
317,229,-0.018540222197771072,-0.08652159571647644,-999.9989013671875,-0.007250702939927578,-0.0025283987633883953,0.0021753315813839436
386,230,-0.02311467006802559,-0.08422444015741348,-1000.0,0.009407675825059414,-0.0015124446945264935,0.012799916788935661
357,230,-0.02311467006802559,-0.08422444015741348,-1000.0,0.009407675825059414,-0.0015124446945264935,0.012799916788935661
366,230,-0.02311467006802559,-0.08422444015741348,-1000.0,0.009407675825059414,-0.0015124446945264935,0.012799916788935661
371,230,-0.02311467006802559,-0.08422444015741348,-1000.0,0.009407675825059414,-0.0015124446945264935,0.012799916788935661
317,230,-0.02311467006802559,-0.08422444015741348,-1000.0,0.009407675825059414,-0.0015124446945264935,0.012799916788935661
288,230,-0.02311467006802559,-0.08422444015741348,-1000.0,0.009407675825059414,-0.0015124446945264935,0.012799916788935661
297,230,-0.02311467006802559,-0.08422444015741348,-1000.0,0.009407675825059414,-0.0015124446945264935,0.012799916788935661
302,230,-0.02311467006802559,-0.08422444015741348,-1000.0,0.009407675825059414,-0.0015124446945264935,0.012799916788935661
367,231,-0.0025590474251657724,0.0026117649395018816,-1000.0040283203125,0.011232160031795502,-0.006857987027615309,-0.0014734378783032298
387,231,-0.0025590474251657724,0.0026117649395018816,-1000.0040283203125,0.011232160031795502,-0.006857987027615309,-0.0014734378783032298
370,231,-0.0025590474251657724,0.0026117649395018816,-1000.0040283203125,0.011232160031795502,-0.006857987027615309,-0.0014734378783032298
360,231,-0.0025590474251657724,0.0026117649395018816,-1000.0040283203125,0.011232160031795502,-0.006857987027615309,-0.0014734378783032298
298,231,-0.0025590474251657724,0.0026117649395018816,-1000.0040283203125,0.011232160031795502,-0.006857987027615309,-0.0014734378783032298
318,231,-0.0025590474251657724,0.0026117649395018816,-1000.0040283203125,0.011232160031795502,-0.006857987027615309,-0.0014734378783032298
301,231,-0.0025590474251657724,0.0026117649395018816,-1000.0040283203125,0.011232160031795502,-0.006857987027615309,-0.0014734378783032298
291,231,-0.0025590474251657724,0.0026117649395018816,-1000.0040283203125,0.011232160031795502,-0.006857987027615309,-0.0014734378783032298
358,232,-0.02360398881137371,-0.08282165229320526,-1000.004150390625,0.023058483377099037,-0.009385267272591591,0.007965761236846447
369,232,-0.02360398881137371,-0.08282165229320526,-1000.004150390625,0.023058483377099037,-0.009385267272591591,0.007965761236846447
368,232,-0.02360398881137371,-0.08282165229320526,-1000.004150390625,0.023058483377099037,-0.009385267272591591,0.007965761236846447
359,232,-0.02360398881137371,-0.08282165229320526,-1000.004150390625,0.023058483377099037,-0.009385267272591591,0.007965761236846447
289,232,-0.02360398881137371,-0.08282165229320526,-1000.004150390625,0.023058483377099037,-0.009385267272591591,0.007965761236846447
300,232,-0.02360398881137371,-0.08282165229320526,-1000.004150390625,0.023058483377099037,-0.009385267272591591,0.007965761236846447
299,232,-0.02360398881137371,-0.08282165229320526,-1000.004150390625,0.023058483377099037,-0.009385267272591591,0.007965761236846447
290,232,-0.02360398881137371,-0.08282165229320526,-1000.004150390625,0.023058483377099037,-0.009385267272591591,0.007965761236846447
397,233,-0.021760407835245132,-0.014145195484161377,-1000.0042114257812,-0.01176445372402668,-0.005320996977388859,0.02019338123500347
410,233,-0.021760407835245132,-0.014145195484161377,-1000.0042114257812,-0.01176445372402668,-0.005320996977388859,0.02019338123500347
389,233,-0.021760407835245132,-0.014145195484161377,-1000.0042114257812,-0.01176445372402668,-0.005320996977388859,0.02019338123500347
400,233,-0.021760407835245132,-0.014145195484161377,-1000.0042114257812,-0.01176445372402668,-0.005320996977388859,0.02019338123500347
328,233,-0.021760407835245132,-0.014145195484161377,-1000.0042114257812,-0.01176445372402668,-0.005320996977388859,0.02019338123500347
341,233,-0.021760407835245132,-0.014145195484161377,-1000.0042114257812,-0.01176445372402668,-0.005320996977388859,0.02019338123500347
320,233,-0.021760407835245132,-0.014145195484161377,-1000.0042114257812,-0.01176445372402668,-0.005320996977388859,0.02019338123500347
331,233,-0.021760407835245132,-0.014145195484161377,-1000.0042114257812,-0.01176445372402668,-0.005320996977388859,0.02019338123500347
413,234,0.10593045502901077,0.1223016306757927,-999.982421875,0.008218272589147091,0.0096017150208354,-0.002958525437861681
391,234,0.10593045502901077,0.1223016306757927,-999.982421875,0.008218272589147091,0.0096017150208354,-0.002958525437861681
377,234,0.10593045502901077,0.1223016306757927,-999.982421875,0.008218272589147091,0.0096017150208354,-0.002958525437861681
378,234,0.10593045502901077,0.1223016306757927,-999.982421875,0.008218272589147091,0.0096017150208354,-0.002958525437861681
344,234,0.10593045502901077,0.1223016306757927,-999.982421875,0.008218272589147091,0.0096017150208354,-0.002958525437861681
322,234,0.10593045502901077,0.1223016306757927,-999.982421875,0.008218272589147091,0.0096017150208354,-0.002958525437861681
308,234,0.10593045502901077,0.1223016306757927,-999.982421875,0.008218272589147091,0.0096017150208354,-0.002958525437861681
309,234,0.10593045502901077,0.1223016306757927,-999.982421875,0.008218272589147091,0.0096017150208354,-0.002958525437861681
401,235,0.039209578186273575,0.06268607825040817,-999.9921875,-0.013482973910868168,-0.020882057026028633,-0.02373560145497322
398,235,0.039209578186273575,0.06268607825040817,-999.9921875,-0.013482973910868168,-0.020882057026028633,-0.02373560145497322
397,235,0.039209578186273575,0.06268607825040817,-999.9921875,-0.013482973910868168,-0.020882057026028633,-0.02373560145497322
400,235,0.039209578186273575,0.06268607825040817,-999.9921875,-0.013482973910868168,-0.020882057026028633,-0.02373560145497322
332,235,0.039209578186273575,0.06268607825040817,-999.9921875,-0.013482973910868168,-0.020882057026028633,-0.02373560145497322
329,235,0.039209578186273575,0.06268607825040817,-999.9921875,-0.013482973910868168,-0.020882057026028633,-0.02373560145497322
328,235,0.039209578186273575,0.06268607825040817,-999.9921875,-0.013482973910868168,-0.020882057026028633,-0.02373560145497322
331,235,0.039209578186273575,0.06268607825040817,-999.9921875,-0.013482973910868168,-0.020882057026028633,-0.02373560145497322
392,236,-0.07074189931154251,-0.11683201789855957,-1000.009521484375,-0.019311746582388878,0.031233632937073708,0.019343789666891098
409,236,-0.07074189931154251,-0.11683201789855957,-1000.009521484375,-0.019311746582388878,0.031233632937073708,0.019343789666891098
397,236,-0.07074189931154251,-0.11683201789855957,-1000.009521484375,-0.019311746582388878,0.031233632937073708,0.019343789666891098
398,236,-0.07074189931154251,-0.11683201789855957,-1000.009521484375,-0.019311746582388878,0.031233632937073708,0.019343789666891098
323,236,-0.07074189931154251,-0.11683201789855957,-1000.009521484375,-0.019311746582388878,0.031233632937073708,0.019343789666891098
340,236,-0.07074189931154251,-0.11683201789855957,-1000.009521484375,-0.019311746582388878,0.031233632937073708,0.019343789666891098
328,236,-0.07074189931154251,-0.11683201789855957,-1000.009521484375,-0.019311746582388878,0.031233632937073708,0.019343789666891098
329,236,-0.07074189931154251,-0.11683201789855957,-1000.009521484375,-0.019311746582388878,0.031233632937073708,0.019343789666891098
372,237,0.019395405426621437,0.03958671912550926,-999.998291015625,0.010865195654332638,0.008071326650679111,-0.015475168824195862
385,237,0.019395405426621437,0.03958671912550926,-999.998291015625,0.010865195654332638,0.008071326650679111,-0.015475168824195862
410,237,0.019395405426621437,0.03958671912550926,-999.998291015625,0.010865195654332638,0.008071326650679111,-0.015475168824195862
397,237,0.019395405426621437,0.03958671912550926,-999.998291015625,0.010865195654332638,0.008071326650679111,-0.015475168824195862
303,237,0.019395405426621437,0.03958671912550926,-999.998291015625,0.010865195654332638,0.008071326650679111,-0.015475168824195862
316,237,0.019395405426621437,0.03958671912550926,-999.998291015625,0.010865195654332638,0.008071326650679111,-0.015475168824195862
341,237,0.019395405426621437,0.03958671912550926,-999.998291015625,0.010865195654332638,0.008071326650679111,-0.015475168824195862
328,237,0.019395405426621437,0.03958671912550926,-999.998291015625,0.010865195654332638,0.008071326650679111,-0.015475168824195862
412,238,0.15497438609600067,0.08226394653320312,-999.9710693359375,0.0379757285118103,0.0448177345097065,0.0408419631421566
396,238,0.15497438609600067,0.08226394653320312,-999.9710693359375,0.0379757285118103,0.0448177345097065,0.0408419631421566
376,238,0.15497438609600067,0.08226394653320312,-999.9710693359375,0.0379757285118103,0.0448177345097065,0.0408419631421566
384,238,0.15497438609600067,0.08226394653320312,-999.9710693359375,0.0379757285118103,0.0448177345097065,0.0408419631421566
343,238,0.15497438609600067,0.08226394653320312,-999.9710693359375,0.0379757285118103,0.0448177345097065,0.0408419631421566
327,238,0.15497438609600067,0.08226394653320312,-999.9710693359375,0.0379757285118103,0.0448177345097065,0.0408419631421566
307,238,0.15497438609600067,0.08226394653320312,-999.9710693359375,0.0379757285118103,0.0448177345097065,0.0408419631421566
315,238,0.15497438609600067,0.08226394653320312,-999.9710693359375,0.0379757285118103,0.0448177345097065,0.0408419631421566
406,239,-0.03585341200232506,-0.06358326226472855,-1000.0159301757812,-0.01874339021742344,-0.044100046157836914,0.01955818384885788
401,239,-0.03585341200232506,-0.06358326226472855,-1000.0159301757812,-0.01874339021742344,-0.044100046157836914,0.01955818384885788
380,239,-0.03585341200232506,-0.06358326226472855,-1000.0159301757812,-0.01874339021742344,-0.044100046157836914,0.01955818384885788
394,239,-0.03585341200232506,-0.06358326226472855,-1000.0159301757812,-0.01874339021742344,-0.044100046157836914,0.01955818384885788
337,239,-0.03585341200232506,-0.06358326226472855,-1000.0159301757812,-0.01874339021742344,-0.044100046157836914,0.01955818384885788
332,239,-0.03585341200232506,-0.06358326226472855,-1000.0159301757812,-0.01874339021742344,-0.044100046157836914,0.01955818384885788
311,239,-0.03585341200232506,-0.06358326226472855,-1000.0159301757812,-0.01874339021742344,-0.044100046157836914,0.01955818384885788
325,239,-0.03585341200232506,-0.06358326226472855,-1000.0159301757812,-0.01874339021742344,-0.044100046157836914,0.01955818384885788
380,240,0.07609233260154724,0.04717736318707466,-1000.0015258789062,0.04584166780114174,0.0008293790160678327,0.026072833687067032
395,240,0.07609233260154724,0.04717736318707466,-1000.0015258789062,0.04584166780114174,0.0008293790160678327,0.026072833687067032
403,240,0.07609233260154724,0.04717736318707466,-1000.0015258789062,0.04584166780114174,0.0008293790160678327,0.026072833687067032
404,240,0.07609233260154724,0.04717736318707466,-1000.0015258789062,0.04584166780114174,0.0008293790160678327,0.026072833687067032
311,240,0.07609233260154724,0.04717736318707466,-1000.0015258789062,0.04584166780114174,0.0008293790160678327,0.026072833687067032
326,240,0.07609233260154724,0.04717736318707466,-1000.0015258789062,0.04584166780114174,0.0008293790160678327,0.026072833687067032
334,240,0.07609233260154724,0.04717736318707466,-1000.0015258789062,0.04584166780114174,0.0008293790160678327,0.026072833687067032
335,240,0.07609233260154724,0.04717736318707466,-1000.0015258789062,0.04584166780114174,0.0008293790160678327,0.026072833687067032
387,241,0.0002400963712716475,-0.02595238946378231,-1000.02880859375,-0.06794323027133942,0.011610882356762886,-0.029065066948533058
368,241,0.0002400963712716475,-0.02595238946378231,-1000.02880859375,-0.06794323027133942,0.011610882356762886,-0.029065066948533058
407,241,0.0002400963712716475,-0.02595238946378231,-1000.02880859375,-0.06794323027133942,0.011610882356762886,-0.029065066948533058
390,241,0.0002400963712716475,-0.02595238946378231,-1000.02880859375,-0.06794323027133942,0.011610882356762886,-0.029065066948533058
318,241,0.0002400963712716475,-0.02595238946378231,-1000.02880859375,-0.06794323027133942,0.011610882356762886,-0.029065066948533058
299,241,0.0002400963712716475,-0.02595238946378231,-1000.02880859375,-0.06794323027133942,0.011610882356762886,-0.029065066948533058
338,241,0.0002400963712716475,-0.02595238946378231,-1000.02880859375,-0.06794323027133942,0.011610882356762886,-0.029065066948533058
321,241,0.0002400963712716475,-0.02595238946378231,-1000.02880859375,-0.06794323027133942,0.011610882356762886,-0.029065066948533058
414,242,0.04641945660114288,0.11219664663076401,-999.9741821289062,-0.004189367406070232,0.008286327123641968,0.023005176335573196
370,242,0.04641945660114288,0.11219664663076401,-999.9741821289062,-0.004189367406070232,0.008286327123641968,0.023005176335573196
387,242,0.04641945660114288,0.11219664663076401,-999.9741821289062,-0.004189367406070232,0.008286327123641968,0.023005176335573196
390,242,0.04641945660114288,0.11219664663076401,-999.9741821289062,-0.004189367406070232,0.008286327123641968,0.023005176335573196
345,242,0.04641945660114288,0.11219664663076401,-999.9741821289062,-0.004189367406070232,0.008286327123641968,0.023005176335573196
301,242,0.04641945660114288,0.11219664663076401,-999.9741821289062,-0.004189367406070232,0.008286327123641968,0.023005176335573196
318,242,0.04641945660114288,0.11219664663076401,-999.9741821289062,-0.004189367406070232,0.008286327123641968,0.023005176335573196
321,242,0.04641945660114288,0.11219664663076401,-999.9741821289062,-0.004189367406070232,0.008286327123641968,0.023005176335573196
374,243,0.06806756556034088,0.06113085150718689,-999.9804077148438,0.009482761844992638,0.015208844095468521,-0.00972007866948843
375,243,0.06806756556034088,0.06113085150718689,-999.9804077148438,0.009482761844992638,0.015208844095468521,-0.00972007866948843
411,243,0.06806756556034088,0.06113085150718689,-999.9804077148438,0.009482761844992638,0.015208844095468521,-0.00972007866948843
389,243,0.06806756556034088,0.06113085150718689,-999.9804077148438,0.009482761844992638,0.015208844095468521,-0.00972007866948843
305,243,0.06806756556034088,0.06113085150718689,-999.9804077148438,0.009482761844992638,0.015208844095468521,-0.00972007866948843
306,243,0.06806756556034088,0.06113085150718689,-999.9804077148438,0.009482761844992638,0.015208844095468521,-0.00972007866948843
342,243,0.06806756556034088,0.06113085150718689,-999.9804077148438,0.009482761844992638,0.015208844095468521,-0.00972007866948843
320,243,0.06806756556034088,0.06113085150718689,-999.9804077148438,0.009482761844992638,0.015208844095468521,-0.00972007866948843
359,244,-0.03716754540801048,-0.08477716892957687,-999.9970092773438,0.030512113124132156,-0.0015192613936960697,-0.0019891776610165834
368,244,-0.03716754540801048,-0.08477716892957687,-999.9970092773438,0.030512113124132156,-0.0015192613936960697,-0.0019891776610165834
387,244,-0.03716754540801048,-0.08477716892957687,-999.9970092773438,0.030512113124132156,-0.0015192613936960697,-0.0019891776610165834
367,244,-0.03716754540801048,-0.08477716892957687,-999.9970092773438,0.030512113124132156,-0.0015192613936960697,-0.0019891776610165834
290,244,-0.03716754540801048,-0.08477716892957687,-999.9970092773438,0.030512113124132156,-0.0015192613936960697,-0.0019891776610165834
299,244,-0.03716754540801048,-0.08477716892957687,-999.9970092773438,0.030512113124132156,-0.0015192613936960697,-0.0019891776610165834
318,244,-0.03716754540801048,-0.08477716892957687,-999.9970092773438,0.030512113124132156,-0.0015192613936960697,-0.0019891776610165834
298,244,-0.03716754540801048,-0.08477716892957687,-999.9970092773438,0.030512113124132156,-0.0015192613936960697,-0.0019891776610165834
356,245,-0.03503980115056038,-0.10401720553636551,-1000.0028076171875,-0.015638934448361397,0.005844300612807274,0.0023919467348605394
402,245,-0.03503980115056038,-0.10401720553636551,-1000.0028076171875,-0.015638934448361397,0.005844300612807274,0.0023919467348605394
371,245,-0.03503980115056038,-0.10401720553636551,-1000.0028076171875,-0.015638934448361397,0.005844300612807274,0.0023919467348605394
366,245,-0.03503980115056038,-0.10401720553636551,-1000.0028076171875,-0.015638934448361397,0.005844300612807274,0.0023919467348605394
287,245,-0.03503980115056038,-0.10401720553636551,-1000.0028076171875,-0.015638934448361397,0.005844300612807274,0.0023919467348605394
333,245,-0.03503980115056038,-0.10401720553636551,-1000.0028076171875,-0.015638934448361397,0.005844300612807274,0.0023919467348605394
302,245,-0.03503980115056038,-0.10401720553636551,-1000.0028076171875,-0.015638934448361397,0.005844300612807274,0.0023919467348605394
297,245,-0.03503980115056038,-0.10401720553636551,-1000.0028076171875,-0.015638934448361397,0.005844300612807274,0.0023919467348605394
372,246,-0.03259100019931793,0.00243793404661119,-1000.0018310546875,-0.010733071714639664,0.0016919912304729223,0.0022835435811430216
355,246,-0.03259100019931793,0.00243793404661119,-1000.0018310546875,-0.010733071714639664,0.0016919912304729223,0.0022835435811430216
365,246,-0.03259100019931793,0.00243793404661119,-1000.0018310546875,-0.010733071714639664,0.0016919912304729223,0.0022835435811430216
385,246,-0.03259100019931793,0.00243793404661119,-1000.0018310546875,-0.010733071714639664,0.0016919912304729223,0.0022835435811430216
303,246,-0.03259100019931793,0.00243793404661119,-1000.0018310546875,-0.010733071714639664,0.0016919912304729223,0.0022835435811430216
286,246,-0.03259100019931793,0.00243793404661119,-1000.0018310546875,-0.010733071714639664,0.0016919912304729223,0.0022835435811430216
296,246,-0.03259100019931793,0.00243793404661119,-1000.0018310546875,-0.010733071714639664,0.0016919912304729223,0.0022835435811430216
316,246,-0.03259100019931793,0.00243793404661119,-1000.0018310546875,-0.010733071714639664,0.0016919912304729223,0.0022835435811430216
373,247,-0.011705943383276463,-0.011098308488726616,-999.9950561523438,-0.006143189501017332,0.00093575578648597,0.0014194570248946548
361,247,-0.011705943383276463,-0.011098308488726616,-999.9950561523438,-0.006143189501017332,0.00093575578648597,0.0014194570248946548
360,247,-0.011705943383276463,-0.011098308488726616,-999.9950561523438,-0.006143189501017332,0.00093575578648597,0.0014194570248946548
370,247,-0.011705943383276463,-0.011098308488726616,-999.9950561523438,-0.006143189501017332,0.00093575578648597,0.0014194570248946548
304,247,-0.011705943383276463,-0.011098308488726616,-999.9950561523438,-0.006143189501017332,0.00093575578648597,0.0014194570248946548
292,247,-0.011705943383276463,-0.011098308488726616,-999.9950561523438,-0.006143189501017332,0.00093575578648597,0.0014194570248946548
291,247,-0.011705943383276463,-0.011098308488726616,-999.9950561523438,-0.006143189501017332,0.00093575578648597,0.0014194570248946548
301,247,-0.011705943383276463,-0.011098308488726616,-999.9950561523438,-0.006143189501017332,0.00093575578648597,0.0014194570248946548
385,248,-0.015377163887023926,-0.004346387926489115,-999.9974975585938,0.00391890574246645,-0.0012400684645399451,-0.0005585117032751441
365,248,-0.015377163887023926,-0.004346387926489115,-999.9974975585938,0.00391890574246645,-0.0012400684645399451,-0.0005585117032751441
354,248,-0.015377163887023926,-0.004346387926489115,-999.9974975585938,0.00391890574246645,-0.0012400684645399451,-0.0005585117032751441
374,248,-0.015377163887023926,-0.004346387926489115,-999.9974975585938,0.00391890574246645,-0.0012400684645399451,-0.0005585117032751441
316,248,-0.015377163887023926,-0.004346387926489115,-999.9974975585938,0.00391890574246645,-0.0012400684645399451,-0.0005585117032751441
296,248,-0.015377163887023926,-0.004346387926489115,-999.9974975585938,0.00391890574246645,-0.0012400684645399451,-0.0005585117032751441
285,248,-0.015377163887023926,-0.004346387926489115,-999.9974975585938,0.00391890574246645,-0.0012400684645399451,-0.0005585117032751441
305,248,-0.015377163887023926,-0.004346387926489115,-999.9974975585938,0.00391890574246645,-0.0012400684645399451,-0.0005585117032751441
409,249,0.04838462173938751,0.03451290354132652,-999.9952392578125,0.04393848031759262,-0.0017986031016334891,0.004770223516970873
402,249,0.04838462173938751,0.03451290354132652,-999.9952392578125,0.04393848031759262,-0.0017986031016334891,0.004770223516970873
372,249,0.04838462173938751,0.03451290354132652,-999.9952392578125,0.04393848031759262,-0.0017986031016334891,0.004770223516970873
397,249,0.04838462173938751,0.03451290354132652,-999.9952392578125,0.04393848031759262,-0.0017986031016334891,0.004770223516970873
340,249,0.04838462173938751,0.03451290354132652,-999.9952392578125,0.04393848031759262,-0.0017986031016334891,0.004770223516970873
333,249,0.04838462173938751,0.03451290354132652,-999.9952392578125,0.04393848031759262,-0.0017986031016334891,0.004770223516970873
303,249,0.04838462173938751,0.03451290354132652,-999.9952392578125,0.04393848031759262,-0.0017986031016334891,0.004770223516970873
328,249,0.04838462173938751,0.03451290354132652,-999.9952392578125,0.04393848031759262,-0.0017986031016334891,0.004770223516970873
374,250,-0.03392955660820007,0.006454815156757832,-1000.0040283203125,0.010315918363630772,0.005053528118878603,0.005680534057319164
354,250,-0.03392955660820007,0.006454815156757832,-1000.0040283203125,0.010315918363630772,0.005053528118878603,0.005680534057319164
353,250,-0.03392955660820007,0.006454815156757832,-1000.0040283203125,0.010315918363630772,0.005053528118878603,0.005680534057319164
375,250,-0.03392955660820007,0.006454815156757832,-1000.0040283203125,0.010315918363630772,0.005053528118878603,0.005680534057319164
305,250,-0.03392955660820007,0.006454815156757832,-1000.0040283203125,0.010315918363630772,0.005053528118878603,0.005680534057319164
285,250,-0.03392955660820007,0.006454815156757832,-1000.0040283203125,0.010315918363630772,0.005053528118878603,0.005680534057319164
284,250,-0.03392955660820007,0.006454815156757832,-1000.0040283203125,0.010315918363630772,0.005053528118878603,0.005680534057319164
306,250,-0.03392955660820007,0.006454815156757832,-1000.0040283203125,0.010315918363630772,0.005053528118878603,0.005680534057319164
375,251,-0.06859362125396729,-0.03015543706715107,-999.9946899414062,-0.008220283314585686,0.00317829055711627,-0.003399734618142247
353,251,-0.06859362125396729,-0.03015543706715107,-999.9946899414062,-0.008220283314585686,0.00317829055711627,-0.003399734618142247
352,251,-0.06859362125396729,-0.03015543706715107,-999.9946899414062,-0.008220283314585686,0.00317829055711627,-0.003399734618142247
376,251,-0.06859362125396729,-0.03015543706715107,-999.9946899414062,-0.008220283314585686,0.00317829055711627,-0.003399734618142247
306,251,-0.06859362125396729,-0.03015543706715107,-999.9946899414062,-0.008220283314585686,0.00317829055711627,-0.003399734618142247
284,251,-0.06859362125396729,-0.03015543706715107,-999.9946899414062,-0.008220283314585686,0.00317829055711627,-0.003399734618142247
283,251,-0.06859362125396729,-0.03015543706715107,-999.9946899414062,-0.008220283314585686,0.00317829055711627,-0.003399734618142247
307,251,-0.06859362125396729,-0.03015543706715107,-999.9946899414062,-0.008220283314585686,0.00317829055711627,-0.003399734618142247
406,252,0.015297871083021164,-0.054208848625421524,-999.988037109375,-0.00951504334807396,-0.007488410919904709,-0.029748139902949333
394,252,0.015297871083021164,-0.054208848625421524,-999.988037109375,-0.00951504334807396,-0.007488410919904709,-0.029748139902949333
405,252,0.015297871083021164,-0.054208848625421524,-999.988037109375,-0.00951504334807396,-0.007488410919904709,-0.029748139902949333
399,252,0.015297871083021164,-0.054208848625421524,-999.988037109375,-0.00951504334807396,-0.007488410919904709,-0.029748139902949333
337,252,0.015297871083021164,-0.054208848625421524,-999.988037109375,-0.00951504334807396,-0.007488410919904709,-0.029748139902949333
325,252,0.015297871083021164,-0.054208848625421524,-999.988037109375,-0.00951504334807396,-0.007488410919904709,-0.029748139902949333
336,252,0.015297871083021164,-0.054208848625421524,-999.988037109375,-0.00951504334807396,-0.007488410919904709,-0.029748139902949333
330,252,0.015297871083021164,-0.054208848625421524,-999.988037109375,-0.00951504334807396,-0.007488410919904709,-0.029748139902949333
361,253,-0.021600326523184776,-0.003962989896535873,-1000.0050659179688,-0.02517235465347767,-0.0012485095066949725,0.004151896107941866
373,253,-0.021600326523184776,-0.003962989896535873,-1000.0050659179688,-0.02517235465347767,-0.0012485095066949725,0.004151896107941866
381,253,-0.021600326523184776,-0.003962989896535873,-1000.0050659179688,-0.02517235465347767,-0.0012485095066949725,0.004151896107941866
346,253,-0.021600326523184776,-0.003962989896535873,-1000.0050659179688,-0.02517235465347767,-0.0012485095066949725,0.004151896107941866
292,253,-0.021600326523184776,-0.003962989896535873,-1000.0050659179688,-0.02517235465347767,-0.0012485095066949725,0.004151896107941866
304,253,-0.021600326523184776,-0.003962989896535873,-1000.0050659179688,-0.02517235465347767,-0.0012485095066949725,0.004151896107941866
312,253,-0.021600326523184776,-0.003962989896535873,-1000.0050659179688,-0.02517235465347767,-0.0012485095066949725,0.004151896107941866
277,253,-0.021600326523184776,-0.003962989896535873,-1000.0050659179688,-0.02517235465347767,-0.0012485095066949725,0.004151896107941866
376,254,-0.04575436934828758,0.009997598826885223,-1000.0072021484375,0.0027330562006682158,-0.001868086983449757,-0.005315014626830816
352,254,-0.04575436934828758,0.009997598826885223,-1000.0072021484375,0.0027330562006682158,-0.001868086983449757,-0.005315014626830816
364,254,-0.04575436934828758,0.009997598826885223,-1000.0072021484375,0.0027330562006682158,-0.001868086983449757,-0.005315014626830816
384,254,-0.04575436934828758,0.009997598826885223,-1000.0072021484375,0.0027330562006682158,-0.001868086983449757,-0.005315014626830816
307,254,-0.04575436934828758,0.009997598826885223,-1000.0072021484375,0.0027330562006682158,-0.001868086983449757,-0.005315014626830816
283,254,-0.04575436934828758,0.009997598826885223,-1000.0072021484375,0.0027330562006682158,-0.001868086983449757,-0.005315014626830816
295,254,-0.04575436934828758,0.009997598826885223,-1000.0072021484375,0.0027330562006682158,-0.001868086983449757,-0.005315014626830816
315,254,-0.04575436934828758,0.009997598826885223,-1000.0072021484375,0.0027330562006682158,-0.001868086983449757,-0.005315014626830816
384,255,-0.051499009132385254,-0.038384728133678436,-999.9931640625,0.01798045076429844,0.00620885007083416,-0.0010779774747788906
364,255,-0.051499009132385254,-0.038384728133678436,-999.9931640625,0.01798045076429844,0.00620885007083416,-0.0010779774747788906
351,255,-0.051499009132385254,-0.038384728133678436,-999.9931640625,0.01798045076429844,0.00620885007083416,-0.0010779774747788906
377,255,-0.051499009132385254,-0.038384728133678436,-999.9931640625,0.01798045076429844,0.00620885007083416,-0.0010779774747788906
315,255,-0.051499009132385254,-0.038384728133678436,-999.9931640625,0.01798045076429844,0.00620885007083416,-0.0010779774747788906
295,255,-0.051499009132385254,-0.038384728133678436,-999.9931640625,0.01798045076429844,0.00620885007083416,-0.0010779774747788906
282,255,-0.051499009132385254,-0.038384728133678436,-999.9931640625,0.01798045076429844,0.00620885007083416,-0.0010779774747788906
308,255,-0.051499009132385254,-0.038384728133678436,-999.9931640625,0.01798045076429844,0.00620885007083416,-0.0010779774747788906
377,256,-0.02723110467195511,-0.059500690549612045,-1000.0071411132812,0.02367139793932438,-0.002819147426635027,0.002160922158509493
351,256,-0.02723110467195511,-0.059500690549612045,-1000.0071411132812,0.02367139793932438,-0.002819147426635027,0.002160922158509493
350,256,-0.02723110467195511,-0.059500690549612045,-1000.0071411132812,0.02367139793932438,-0.002819147426635027,0.002160922158509493
378,256,-0.02723110467195511,-0.059500690549612045,-1000.0071411132812,0.02367139793932438,-0.002819147426635027,0.002160922158509493
308,256,-0.02723110467195511,-0.059500690549612045,-1000.0071411132812,0.02367139793932438,-0.002819147426635027,0.002160922158509493
282,256,-0.02723110467195511,-0.059500690549612045,-1000.0071411132812,0.02367139793932438,-0.002819147426635027,0.002160922158509493
281,256,-0.02723110467195511,-0.059500690549612045,-1000.0071411132812,0.02367139793932438,-0.002819147426635027,0.002160922158509493
309,256,-0.02723110467195511,-0.059500690549612045,-1000.0071411132812,0.02367139793932438,-0.002819147426635027,0.002160922158509493
378,257,-0.006956635974347591,-0.03399813547730446,-999.9942626953125,-0.003270520130172372,0.007723557762801647,-0.0037640840746462345
350,257,-0.006956635974347591,-0.03399813547730446,-999.9942626953125,-0.003270520130172372,0.007723557762801647,-0.0037640840746462345
363,257,-0.006956635974347591,-0.03399813547730446,-999.9942626953125,-0.003270520130172372,0.007723557762801647,-0.0037640840746462345
383,257,-0.006956635974347591,-0.03399813547730446,-999.9942626953125,-0.003270520130172372,0.007723557762801647,-0.0037640840746462345
309,257,-0.006956635974347591,-0.03399813547730446,-999.9942626953125,-0.003270520130172372,0.007723557762801647,-0.0037640840746462345
281,257,-0.006956635974347591,-0.03399813547730446,-999.9942626953125,-0.003270520130172372,0.007723557762801647,-0.0037640840746462345
294,257,-0.006956635974347591,-0.03399813547730446,-999.9942626953125,-0.003270520130172372,0.007723557762801647,-0.0037640840746462345
314,257,-0.006956635974347591,-0.03399813547730446,-999.9942626953125,-0.003270520130172372,0.007723557762801647,-0.0037640840746462345
383,258,-0.004065026994794607,-0.026804130524396896,-1000.0048828125,-0.005832315422594547,-0.013463425450026989,0.002104307757690549
363,258,-0.004065026994794607,-0.026804130524396896,-1000.0048828125,-0.005832315422594547,-0.013463425450026989,0.002104307757690549
349,258,-0.004065026994794607,-0.026804130524396896,-1000.0048828125,-0.005832315422594547,-0.013463425450026989,0.002104307757690549
379,258,-0.004065026994794607,-0.026804130524396896,-1000.0048828125,-0.005832315422594547,-0.013463425450026989,0.002104307757690549
314,258,-0.004065026994794607,-0.026804130524396896,-1000.0048828125,-0.005832315422594547,-0.013463425450026989,0.002104307757690549
294,258,-0.004065026994794607,-0.026804130524396896,-1000.0048828125,-0.005832315422594547,-0.013463425450026989,0.002104307757690549
280,258,-0.004065026994794607,-0.026804130524396896,-1000.0048828125,-0.005832315422594547,-0.013463425450026989,0.002104307757690549
310,258,-0.004065026994794607,-0.026804130524396896,-1000.0048828125,-0.005832315422594547,-0.013463425450026989,0.002104307757690549
403,259,-0.08459692448377609,-0.09163962304592133,-1000.001708984375,-0.03566742688417435,-0.008213762193918228,-0.005856885574758053
348,259,-0.08459692448377609,-0.09163962304592133,-1000.001708984375,-0.03566742688417435,-0.008213762193918228,-0.005856885574758053
347,259,-0.08459692448377609,-0.09163962304592133,-1000.001708984375,-0.03566742688417435,-0.008213762193918228,-0.005856885574758053
404,259,-0.08459692448377609,-0.09163962304592133,-1000.001708984375,-0.03566742688417435,-0.008213762193918228,-0.005856885574758053
334,259,-0.08459692448377609,-0.09163962304592133,-1000.001708984375,-0.03566742688417435,-0.008213762193918228,-0.005856885574758053
279,259,-0.08459692448377609,-0.09163962304592133,-1000.001708984375,-0.03566742688417435,-0.008213762193918228,-0.005856885574758053
278,259,-0.08459692448377609,-0.09163962304592133,-1000.001708984375,-0.03566742688417435,-0.008213762193918228,-0.005856885574758053
335,259,-0.08459692448377609,-0.09163962304592133,-1000.001708984375,-0.03566742688417435,-0.008213762193918228,-0.005856885574758053
382,260,-0.0004923386732116342,-0.0253608375787735,-999.9967041015625,-0.004830724094063044,-0.0023359302431344986,0.00027691436116583645
362,260,-0.0004923386732116342,-0.0253608375787735,-999.9967041015625,-0.004830724094063044,-0.0023359302431344986,0.00027691436116583645
346,260,-0.0004923386732116342,-0.0253608375787735,-999.9967041015625,-0.004830724094063044,-0.0023359302431344986,0.00027691436116583645
381,260,-0.0004923386732116342,-0.0253608375787735,-999.9967041015625,-0.004830724094063044,-0.0023359302431344986,0.00027691436116583645
313,260,-0.0004923386732116342,-0.0253608375787735,-999.9967041015625,-0.004830724094063044,-0.0023359302431344986,0.00027691436116583645
293,260,-0.0004923386732116342,-0.0253608375787735,-999.9967041015625,-0.004830724094063044,-0.0023359302431344986,0.00027691436116583645
277,260,-0.0004923386732116342,-0.0253608375787735,-999.9967041015625,-0.004830724094063044,-0.0023359302431344986,0.00027691436116583645
312,260,-0.0004923386732116342,-0.0253608375787735,-999.9967041015625,-0.004830724094063044,-0.0023359302431344986,0.00027691436116583645
405,261,0.0873955711722374,0.1418551504611969,-999.9710083007812,0.025375932455062866,-0.011780433356761932,-0.028904277831315994
381,261,0.0873955711722374,0.1418551504611969,-999.9710083007812,0.025375932455062866,-0.011780433356761932,-0.028904277831315994
373,261,0.0873955711722374,0.1418551504611969,-999.9710083007812,0.025375932455062866,-0.011780433356761932,-0.028904277831315994
388,261,0.0873955711722374,0.1418551504611969,-999.9710083007812,0.025375932455062866,-0.011780433356761932,-0.028904277831315994
336,261,0.0873955711722374,0.1418551504611969,-999.9710083007812,0.025375932455062866,-0.011780433356761932,-0.028904277831315994
312,261,0.0873955711722374,0.1418551504611969,-999.9710083007812,0.025375932455062866,-0.011780433356761932,-0.028904277831315994
304,261,0.0873955711722374,0.1418551504611969,-999.9710083007812,0.025375932455062866,-0.011780433356761932,-0.028904277831315994
319,261,0.0873955711722374,0.1418551504611969,-999.9710083007812,0.025375932455062866,-0.011780433356761932,-0.028904277831315994
404,262,0.043246183544397354,0.10599589347839355,-999.9855346679688,0.013998513109982014,0.01903476193547249,-0.011988196521997452
382,262,0.043246183544397354,0.10599589347839355,-999.9855346679688,0.013998513109982014,0.01903476193547249,-0.011988196521997452
394,262,0.043246183544397354,0.10599589347839355,-999.9855346679688,0.013998513109982014,0.01903476193547249,-0.011988196521997452
380,262,0.043246183544397354,0.10599589347839355,-999.9855346679688,0.013998513109982014,0.01903476193547249,-0.011988196521997452
335,262,0.043246183544397354,0.10599589347839355,-999.9855346679688,0.013998513109982014,0.01903476193547249,-0.011988196521997452
313,262,0.043246183544397354,0.10599589347839355,-999.9855346679688,0.013998513109982014,0.01903476193547249,-0.011988196521997452
325,262,0.043246183544397354,0.10599589347839355,-999.9855346679688,0.013998513109982014,0.01903476193547249,-0.011988196521997452
311,262,0.043246183544397354,0.10599589347839355,-999.9855346679688,0.013998513109982014,0.01903476193547249,-0.011988196521997452
379,263,-0.04845967888832092,-0.06215733289718628,-999.9987182617188,-0.04538046941161156,0.014050347730517387,-0.008548610843718052
349,263,-0.04845967888832092,-0.06215733289718628,-999.9987182617188,-0.04538046941161156,0.014050347730517387,-0.008548610843718052
348,263,-0.04845967888832092,-0.06215733289718628,-999.9987182617188,-0.04538046941161156,0.014050347730517387,-0.008548610843718052
403,263,-0.04845967888832092,-0.06215733289718628,-999.9987182617188,-0.04538046941161156,0.014050347730517387,-0.008548610843718052
310,263,-0.04845967888832092,-0.06215733289718628,-999.9987182617188,-0.04538046941161156,0.014050347730517387,-0.008548610843718052
280,263,-0.04845967888832092,-0.06215733289718628,-999.9987182617188,-0.04538046941161156,0.014050347730517387,-0.008548610843718052
279,263,-0.04845967888832092,-0.06215733289718628,-999.9987182617188,-0.04538046941161156,0.014050347730517387,-0.008548610843718052
334,263,-0.04845967888832092,-0.06215733289718628,-999.9987182617188,-0.04538046941161156,0.014050347730517387,-0.008548610843718052
388,264,-0.02338787168264389,-0.12369260936975479,-1000.0278930664062,0.006497561931610107,0.02567320689558983,-0.011893528513610363
373,264,-0.02338787168264389,-0.12369260936975479,-1000.0278930664062,0.006497561931610107,0.02567320689558983,-0.011893528513610363
370,264,-0.02338787168264389,-0.12369260936975479,-1000.0278930664062,0.006497561931610107,0.02567320689558983,-0.011893528513610363
414,264,-0.02338787168264389,-0.12369260936975479,-1000.0278930664062,0.006497561931610107,0.02567320689558983,-0.011893528513610363
319,264,-0.02338787168264389,-0.12369260936975479,-1000.0278930664062,0.006497561931610107,0.02567320689558983,-0.011893528513610363
304,264,-0.02338787168264389,-0.12369260936975479,-1000.0278930664062,0.006497561931610107,0.02567320689558983,-0.011893528513610363
301,264,-0.02338787168264389,-0.12369260936975479,-1000.0278930664062,0.006497561931610107,0.02567320689558983,-0.011893528513610363
345,264,-0.02338787168264389,-0.12369260936975479,-1000.0278930664062,0.006497561931610107,0.02567320689558983,-0.011893528513610363
399,265,0.021255269646644592,0.046757567673921585,-999.9959106445312,0.0388762466609478,-0.006760427262634039,-0.03536088392138481
414,265,0.021255269646644592,0.046757567673921585,-999.9959106445312,0.0388762466609478,-0.006760427262634039,-0.03536088392138481
390,265,0.021255269646644592,0.046757567673921585,-999.9959106445312,0.0388762466609478,-0.006760427262634039,-0.03536088392138481
398,265,0.021255269646644592,0.046757567673921585,-999.9959106445312,0.0388762466609478,-0.006760427262634039,-0.03536088392138481
330,265,0.021255269646644592,0.046757567673921585,-999.9959106445312,0.0388762466609478,-0.006760427262634039,-0.03536088392138481
345,265,0.021255269646644592,0.046757567673921585,-999.9959106445312,0.0388762466609478,-0.006760427262634039,-0.03536088392138481
321,265,0.021255269646644592,0.046757567673921585,-999.9959106445312,0.0388762466609478,-0.006760427262634039,-0.03536088392138481
329,265,0.021255269646644592,0.046757567673921585,-999.9959106445312,0.0388762466609478,-0.006760427262634039,-0.03536088392138481
369,266,-0.014878838323056698,0.06299435347318649,-1000.0261840820312,-0.037086207419633865,0.0008048054296523333,-0.048331119120121
386,266,-0.014878838323056698,0.06299435347318649,-1000.0261840820312,-0.037086207419633865,0.0008048054296523333,-0.048331119120121
408,266,-0.014878838323056698,0.06299435347318649,-1000.0261840820312,-0.037086207419633865,0.0008048054296523333,-0.048331119120121
393,266,-0.014878838323056698,0.06299435347318649,-1000.0261840820312,-0.037086207419633865,0.0008048054296523333,-0.048331119120121
300,266,-0.014878838323056698,0.06299435347318649,-1000.0261840820312,-0.037086207419633865,0.0008048054296523333,-0.048331119120121
317,266,-0.014878838323056698,0.06299435347318649,-1000.0261840820312,-0.037086207419633865,0.0008048054296523333,-0.048331119120121
339,266,-0.014878838323056698,0.06299435347318649,-1000.0261840820312,-0.037086207419633865,0.0008048054296523333,-0.048331119120121
324,266,-0.014878838323056698,0.06299435347318649,-1000.0261840820312,-0.037086207419633865,0.0008048054296523333,-0.048331119120121
393,267,0.0098912687972188,-0.11145208030939102,-1000.0046997070312,-0.007956136018037796,-0.010163559578359127,0.05307891592383385
408,267,0.0098912687972188,-0.11145208030939102,-1000.0046997070312,-0.007956136018037796,-0.010163559578359127,0.05307891592383385
392,267,0.0098912687972188,-0.11145208030939102,-1000.0046997070312,-0.007956136018037796,-0.010163559578359127,0.05307891592383385
398,267,0.0098912687972188,-0.11145208030939102,-1000.0046997070312,-0.007956136018037796,-0.010163559578359127,0.05307891592383385
324,267,0.0098912687972188,-0.11145208030939102,-1000.0046997070312,-0.007956136018037796,-0.010163559578359127,0.05307891592383385
339,267,0.0098912687972188,-0.11145208030939102,-1000.0046997070312,-0.007956136018037796,-0.010163559578359127,0.05307891592383385
323,267,0.0098912687972188,-0.11145208030939102,-1000.0046997070312,-0.007956136018037796,-0.010163559578359127,0.05307891592383385
329,267,0.0098912687972188,-0.11145208030939102,-1000.0046997070312,-0.007956136018037796,-0.010163559578359127,0.05307891592383385
395,268,0.08022323250770569,0.08972854912281036,-999.9918212890625,0.037341177463531494,0.007312797475606203,0.006396381184458733
383,268,0.08022323250770569,0.08972854912281036,-999.9918212890625,0.037341177463531494,0.007312797475606203,0.006396381184458733
379,268,0.08022323250770569,0.08972854912281036,-999.9918212890625,0.037341177463531494,0.007312797475606203,0.006396381184458733
403,268,0.08022323250770569,0.08972854912281036,-999.9918212890625,0.037341177463531494,0.007312797475606203,0.006396381184458733
326,268,0.08022323250770569,0.08972854912281036,-999.9918212890625,0.037341177463531494,0.007312797475606203,0.006396381184458733
314,268,0.08022323250770569,0.08972854912281036,-999.9918212890625,0.037341177463531494,0.007312797475606203,0.006396381184458733
310,268,0.08022323250770569,0.08972854912281036,-999.9918212890625,0.037341177463531494,0.007312797475606203,0.006396381184458733
334,268,0.08022323250770569,0.08972854912281036,-999.9918212890625,0.037341177463531494,0.007312797475606203,0.006396381184458733
393,269,-0.05788925290107727,-0.11375396698713303,-1000.0098266601562,0.019612537696957588,-0.03870478644967079,0.004510051570832729
398,269,-0.05788925290107727,-0.11375396698713303,-1000.0098266601562,0.019612537696957588,-0.03870478644967079,0.004510051570832729
390,269,-0.05788925290107727,-0.11375396698713303,-1000.0098266601562,0.019612537696957588,-0.03870478644967079,0.004510051570832729
407,269,-0.05788925290107727,-0.11375396698713303,-1000.0098266601562,0.019612537696957588,-0.03870478644967079,0.004510051570832729
324,269,-0.05788925290107727,-0.11375396698713303,-1000.0098266601562,0.019612537696957588,-0.03870478644967079,0.004510051570832729
329,269,-0.05788925290107727,-0.11375396698713303,-1000.0098266601562,0.019612537696957588,-0.03870478644967079,0.004510051570832729
321,269,-0.05788925290107727,-0.11375396698713303,-1000.0098266601562,0.019612537696957588,-0.03870478644967079,0.004510051570832729
338,269,-0.05788925290107727,-0.11375396698713303,-1000.0098266601562,0.019612537696957588,-0.03870478644967079,0.004510051570832729
371,270,0.023209553211927414,0.1482141762971878,-1000.0040893554688,-0.008095469325780869,-0.02886105887591839,-0.026689380407333374
402,270,0.023209553211927414,0.1482141762971878,-1000.0040893554688,-0.008095469325780869,-0.02886105887591839,-0.026689380407333374
409,270,0.023209553211927414,0.1482141762971878,-1000.0040893554688,-0.008095469325780869,-0.02886105887591839,-0.026689380407333374
392,270,0.023209553211927414,0.1482141762971878,-1000.0040893554688,-0.008095469325780869,-0.02886105887591839,-0.026689380407333374
302,270,0.023209553211927414,0.1482141762971878,-1000.0040893554688,-0.008095469325780869,-0.02886105887591839,-0.026689380407333374
333,270,0.023209553211927414,0.1482141762971878,-1000.0040893554688,-0.008095469325780869,-0.02886105887591839,-0.026689380407333374
340,270,0.023209553211927414,0.1482141762971878,-1000.0040893554688,-0.008095469325780869,-0.02886105887591839,-0.026689380407333374
323,270,0.023209553211927414,0.1482141762971878,-1000.0040893554688,-0.008095469325780869,-0.02886105887591839,-0.026689380407333374
413,271,-0.0714036375284195,-0.07257905602455139,-999.9992065429688,-0.02569611929357052,0.005283875856548548,-0.035875581204891205
395,271,-0.0714036375284195,-0.07257905602455139,-999.9992065429688,-0.02569611929357052,0.005283875856548548,-0.035875581204891205
380,271,-0.0714036375284195,-0.07257905602455139,-999.9992065429688,-0.02569611929357052,0.005283875856548548,-0.035875581204891205
401,271,-0.0714036375284195,-0.07257905602455139,-999.9992065429688,-0.02569611929357052,0.005283875856548548,-0.035875581204891205
344,271,-0.0714036375284195,-0.07257905602455139,-999.9992065429688,-0.02569611929357052,0.005283875856548548,-0.035875581204891205
326,271,-0.0714036375284195,-0.07257905602455139,-999.9992065429688,-0.02569611929357052,0.005283875856548548,-0.035875581204891205
311,271,-0.0714036375284195,-0.07257905602455139,-999.9992065429688,-0.02569611929357052,0.005283875856548548,-0.035875581204891205
332,271,-0.0714036375284195,-0.07257905602455139,-999.9992065429688,-0.02569611929357052,0.005283875856548548,-0.035875581204891205
389,272,-0.09011813998222351,0.01693464256823063,-1000.0043334960938,0.0003137897583656013,0.033472973853349686,0.02048587054014206
411,272,-0.09011813998222351,0.01693464256823063,-1000.0043334960938,0.0003137897583656013,0.033472973853349686,0.02048587054014206
396,272,-0.09011813998222351,0.01693464256823063,-1000.0043334960938,0.0003137897583656013,0.033472973853349686,0.02048587054014206
400,272,-0.09011813998222351,0.01693464256823063,-1000.0043334960938,0.0003137897583656013,0.033472973853349686,0.02048587054014206
320,272,-0.09011813998222351,0.01693464256823063,-1000.0043334960938,0.0003137897583656013,0.033472973853349686,0.02048587054014206
342,272,-0.09011813998222351,0.01693464256823063,-1000.0043334960938,0.0003137897583656013,0.033472973853349686,0.02048587054014206
327,272,-0.09011813998222351,0.01693464256823063,-1000.0043334960938,0.0003137897583656013,0.033472973853349686,0.02048587054014206
331,272,-0.09011813998222351,0.01693464256823063,-1000.0043334960938,0.0003137897583656013,0.033472973853349686,0.02048587054014206
412,273,-0.04155176505446434,-0.02609715238213539,-1000.0230712890625,-0.0685720220208168,-0.04590696841478348,-0.0027627930976450443
384,273,-0.04155176505446434,-0.02609715238213539,-1000.0230712890625,-0.0685720220208168,-0.04590696841478348,-0.0027627930976450443
377,273,-0.04155176505446434,-0.02609715238213539,-1000.0230712890625,-0.0685720220208168,-0.04590696841478348,-0.0027627930976450443
391,273,-0.04155176505446434,-0.02609715238213539,-1000.0230712890625,-0.0685720220208168,-0.04590696841478348,-0.0027627930976450443
343,273,-0.04155176505446434,-0.02609715238213539,-1000.0230712890625,-0.0685720220208168,-0.04590696841478348,-0.0027627930976450443
315,273,-0.04155176505446434,-0.02609715238213539,-1000.0230712890625,-0.0685720220208168,-0.04590696841478348,-0.0027627930976450443
308,273,-0.04155176505446434,-0.02609715238213539,-1000.0230712890625,-0.0685720220208168,-0.04590696841478348,-0.0027627930976450443
322,273,-0.04155176505446434,-0.02609715238213539,-1000.0230712890625,-0.0685720220208168,-0.04590696841478348,-0.0027627930976450443
401,274,0.042383115738630295,-0.03234052285552025,-1000.0031127929688,0.037377599626779556,0.0074643404223024845,0.03534545749425888
400,274,0.042383115738630295,-0.03234052285552025,-1000.0031127929688,0.037377599626779556,0.0074643404223024845,0.03534545749425888
391,274,0.042383115738630295,-0.03234052285552025,-1000.0031127929688,0.037377599626779556,0.0074643404223024845,0.03534545749425888
413,274,0.042383115738630295,-0.03234052285552025,-1000.0031127929688,0.037377599626779556,0.0074643404223024845,0.03534545749425888
332,274,0.042383115738630295,-0.03234052285552025,-1000.0031127929688,0.037377599626779556,0.0074643404223024845,0.03534545749425888
331,274,0.042383115738630295,-0.03234052285552025,-1000.0031127929688,0.037377599626779556,0.0074643404223024845,0.03534545749425888
322,274,0.042383115738630295,-0.03234052285552025,-1000.0031127929688,0.037377599626779556,0.0074643404223024845,0.03534545749425888
344,274,0.042383115738630295,-0.03234052285552025,-1000.0031127929688,0.037377599626779556,0.0074643404223024845,0.03534545749425888
401,275,0.007477589417248964,0.0692574754357338,-999.99560546875,0.0019254401559010148,0.0505838617682457,0.02275119535624981
406,275,0.007477589417248964,0.0692574754357338,-999.99560546875,0.0019254401559010148,0.0505838617682457,0.02275119535624981
399,275,0.007477589417248964,0.0692574754357338,-999.99560546875,0.0019254401559010148,0.0505838617682457,0.02275119535624981
398,275,0.007477589417248964,0.0692574754357338,-999.99560546875,0.0019254401559010148,0.0505838617682457,0.02275119535624981
332,275,0.007477589417248964,0.0692574754357338,-999.99560546875,0.0019254401559010148,0.0505838617682457,0.02275119535624981
337,275,0.007477589417248964,0.0692574754357338,-999.99560546875,0.0019254401559010148,0.0505838617682457,0.02275119535624981
330,275,0.007477589417248964,0.0692574754357338,-999.99560546875,0.0019254401559010148,0.0505838617682457,0.02275119535624981
329,275,0.007477589417248964,0.0692574754357338,-999.99560546875,0.0019254401559010148,0.0505838617682457,0.02275119535624981
391,276,-0.11015722155570984,-0.06915409117937088,-1000.0020751953125,-0.0008500268450006843,0.0041635832749307156,-0.05264453589916229
400,276,-0.11015722155570984,-0.06915409117937088,-1000.0020751953125,-0.0008500268450006843,0.0041635832749307156,-0.05264453589916229
396,276,-0.11015722155570984,-0.06915409117937088,-1000.0020751953125,-0.0008500268450006843,0.0041635832749307156,-0.05264453589916229
412,276,-0.11015722155570984,-0.06915409117937088,-1000.0020751953125,-0.0008500268450006843,0.0041635832749307156,-0.05264453589916229
322,276,-0.11015722155570984,-0.06915409117937088,-1000.0020751953125,-0.0008500268450006843,0.0041635832749307156,-0.05264453589916229
331,276,-0.11015722155570984,-0.06915409117937088,-1000.0020751953125,-0.0008500268450006843,0.0041635832749307156,-0.05264453589916229
327,276,-0.11015722155570984,-0.06915409117937088,-1000.0020751953125,-0.0008500268450006843,0.0041635832749307156,-0.05264453589916229
343,276,-0.11015722155570984,-0.06915409117937088,-1000.0020751953125,-0.0008500268450006843,0.0041635832749307156,-0.05264453589916229
402,277,-0.0254967138171196,-0.06743750721216202,-999.9984741210938,-0.019130295142531395,0.00033157647703774273,0.0016869247192516923
356,277,-0.0254967138171196,-0.06743750721216202,-999.9984741210938,-0.019130295142531395,0.00033157647703774273,0.0016869247192516923
355,277,-0.0254967138171196,-0.06743750721216202,-999.9984741210938,-0.019130295142531395,0.00033157647703774273,0.0016869247192516923
372,277,-0.0254967138171196,-0.06743750721216202,-999.9984741210938,-0.019130295142531395,0.00033157647703774273,0.0016869247192516923
333,277,-0.0254967138171196,-0.06743750721216202,-999.9984741210938,-0.019130295142531395,0.00033157647703774273,0.0016869247192516923
287,277,-0.0254967138171196,-0.06743750721216202,-999.9984741210938,-0.019130295142531395,0.00033157647703774273,0.0016869247192516923
286,277,-0.0254967138171196,-0.06743750721216202,-999.9984741210938,-0.019130295142531395,0.00033157647703774273,0.0016869247192516923
303,277,-0.0254967138171196,-0.06743750721216202,-999.9984741210938,-0.019130295142531395,0.00033157647703774273,0.0016869247192516923
404,278,-0.017573805525898933,-0.0402960442006588,-1000.0023803710938,-0.027304356917738914,-0.004291821271181107,-0.0001422628411091864
347,278,-0.017573805525898933,-0.0402960442006588,-1000.0023803710938,-0.027304356917738914,-0.004291821271181107,-0.0001422628411091864
362,278,-0.017573805525898933,-0.0402960442006588,-1000.0023803710938,-0.027304356917738914,-0.004291821271181107,-0.0001422628411091864
382,278,-0.017573805525898933,-0.0402960442006588,-1000.0023803710938,-0.027304356917738914,-0.004291821271181107,-0.0001422628411091864
335,278,-0.017573805525898933,-0.0402960442006588,-1000.0023803710938,-0.027304356917738914,-0.004291821271181107,-0.0001422628411091864
278,278,-0.017573805525898933,-0.0402960442006588,-1000.0023803710938,-0.027304356917738914,-0.004291821271181107,-0.0001422628411091864
293,278,-0.017573805525898933,-0.0402960442006588,-1000.0023803710938,-0.027304356917738914,-0.004291821271181107,-0.0001422628411091864
313,278,-0.017573805525898933,-0.0402960442006588,-1000.0023803710938,-0.027304356917738914,-0.004291821271181107,-0.0001422628411091864
381,279,-0.028056776151061058,-0.03419427573680878,-1000.0172729492188,0.024019381031394005,0.017228025943040848,0.016647282987833023
405,279,-0.028056776151061058,-0.03419427573680878,-1000.0172729492188,0.024019381031394005,0.017228025943040848,0.016647282987833023
394,279,-0.028056776151061058,-0.03419427573680878,-1000.0172729492188,0.024019381031394005,0.017228025943040848,0.016647282987833023
382,279,-0.028056776151061058,-0.03419427573680878,-1000.0172729492188,0.024019381031394005,0.017228025943040848,0.016647282987833023
312,279,-0.028056776151061058,-0.03419427573680878,-1000.0172729492188,0.024019381031394005,0.017228025943040848,0.016647282987833023
336,279,-0.028056776151061058,-0.03419427573680878,-1000.0172729492188,0.024019381031394005,0.017228025943040848,0.016647282987833023
325,279,-0.028056776151061058,-0.03419427573680878,-1000.0172729492188,0.024019381031394005,0.017228025943040848,0.016647282987833023
313,279,-0.028056776151061058,-0.03419427573680878,-1000.0172729492188,0.024019381031394005,0.017228025943040848,0.016647282987833023
405,280,-0.0709405466914177,-0.06076807528734207,-1000.0147705078125,-0.04433571919798851,-0.030540049076080322,0.04302432760596275
388,280,-0.0709405466914177,-0.06076807528734207,-1000.0147705078125,-0.04433571919798851,-0.030540049076080322,0.04302432760596275
414,280,-0.0709405466914177,-0.06076807528734207,-1000.0147705078125,-0.04433571919798851,-0.030540049076080322,0.04302432760596275
399,280,-0.0709405466914177,-0.06076807528734207,-1000.0147705078125,-0.04433571919798851,-0.030540049076080322,0.04302432760596275
336,280,-0.0709405466914177,-0.06076807528734207,-1000.0147705078125,-0.04433571919798851,-0.030540049076080322,0.04302432760596275
319,280,-0.0709405466914177,-0.06076807528734207,-1000.0147705078125,-0.04433571919798851,-0.030540049076080322,0.04302432760596275
345,280,-0.0709405466914177,-0.06076807528734207,-1000.0147705078125,-0.04433571919798851,-0.030540049076080322,0.04302432760596275
330,280,-0.0709405466914177,-0.06076807528734207,-1000.0147705078125,-0.04433571919798851,-0.030540049076080322,0.04302432760596275
407,281,0.0709637999534607,0.20247326791286469,-999.961669921875,0.01657908782362938,0.03785240650177002,0.015747610479593277
368,281,0.0709637999534607,0.20247326791286469,-999.961669921875,0.01657908782362938,0.03785240650177002,0.015747610479593277
369,281,0.0709637999534607,0.20247326791286469,-999.961669921875,0.01657908782362938,0.03785240650177002,0.015747610479593277
393,281,0.0709637999534607,0.20247326791286469,-999.961669921875,0.01657908782362938,0.03785240650177002,0.015747610479593277
338,281,0.0709637999534607,0.20247326791286469,-999.961669921875,0.01657908782362938,0.03785240650177002,0.015747610479593277
299,281,0.0709637999534607,0.20247326791286469,-999.961669921875,0.01657908782362938,0.03785240650177002,0.015747610479593277
300,281,0.0709637999534607,0.20247326791286469,-999.961669921875,0.01657908782362938,0.03785240650177002,0.015747610479593277
324,281,0.0709637999534607,0.20247326791286469,-999.961669921875,0.01657908782362938,0.03785240650177002,0.015747610479593277
408,282,0.06031303480267525,0.12120789289474487,-999.9778442382812,0.034426622092723846,0.012189818546175957,-0.016219409182667732
386,282,0.06031303480267525,0.12120789289474487,-999.9778442382812,0.034426622092723846,0.012189818546175957,-0.016219409182667732
371,282,0.06031303480267525,0.12120789289474487,-999.9778442382812,0.034426622092723846,0.012189818546175957,-0.016219409182667732
392,282,0.06031303480267525,0.12120789289474487,-999.9778442382812,0.034426622092723846,0.012189818546175957,-0.016219409182667732
339,282,0.06031303480267525,0.12120789289474487,-999.9778442382812,0.034426622092723846,0.012189818546175957,-0.016219409182667732
317,282,0.06031303480267525,0.12120789289474487,-999.9778442382812,0.034426622092723846,0.012189818546175957,-0.016219409182667732
302,282,0.06031303480267525,0.12120789289474487,-999.9778442382812,0.034426622092723846,0.012189818546175957,-0.016219409182667732
323,282,0.06031303480267525,0.12120789289474487,-999.9778442382812,0.034426622092723846,0.012189818546175957,-0.016219409182667732
410,283,0.02959170565009117,-0.045089080929756165,-1000.0073852539062,-0.004271801095455885,-0.01761932112276554,-0.004474896937608719
385,283,0.02959170565009117,-0.045089080929756165,-1000.0073852539062,-0.004271801095455885,-0.01761932112276554,-0.004474896937608719
374,283,0.02959170565009117,-0.045089080929756165,-1000.0073852539062,-0.004271801095455885,-0.01761932112276554,-0.004474896937608719
389,283,0.02959170565009117,-0.045089080929756165,-1000.0073852539062,-0.004271801095455885,-0.01761932112276554,-0.004474896937608719
341,283,0.02959170565009117,-0.045089080929756165,-1000.0073852539062,-0.004271801095455885,-0.01761932112276554,-0.004474896937608719
316,283,0.02959170565009117,-0.045089080929756165,-1000.0073852539062,-0.004271801095455885,-0.01761932112276554,-0.004474896937608719
305,283,0.02959170565009117,-0.045089080929756165,-1000.0073852539062,-0.004271801095455885,-0.01761932112276554,-0.004474896937608719
320,283,0.02959170565009117,-0.045089080929756165,-1000.0073852539062,-0.004271801095455885,-0.01761932112276554,-0.004474896937608719
411,284,0.05424351245164871,-0.04366252198815346,-1000.023681640625,-0.024510933086276054,-0.05459212884306908,-0.008842088282108307
375,284,0.05424351245164871,-0.04366252198815346,-1000.023681640625,-0.024510933086276054,-0.05459212884306908,-0.008842088282108307
376,284,0.05424351245164871,-0.04366252198815346,-1000.023681640625,-0.024510933086276054,-0.05459212884306908,-0.008842088282108307
396,284,0.05424351245164871,-0.04366252198815346,-1000.023681640625,-0.024510933086276054,-0.05459212884306908,-0.008842088282108307
342,284,0.05424351245164871,-0.04366252198815346,-1000.023681640625,-0.024510933086276054,-0.05459212884306908,-0.008842088282108307
306,284,0.05424351245164871,-0.04366252198815346,-1000.023681640625,-0.024510933086276054,-0.05459212884306908,-0.008842088282108307
307,284,0.05424351245164871,-0.04366252198815346,-1000.023681640625,-0.024510933086276054,-0.05459212884306908,-0.008842088282108307
327,284,0.05424351245164871,-0.04366252198815346,-1000.023681640625,-0.024510933086276054,-0.05459212884306908,-0.008842088282108307
413,285,-0.06679398566484451,-0.013118395581841469,-1000.0115356445312,-0.02886306680738926,-0.01096237450838089,0.005181192886084318
378,285,-0.06679398566484451,-0.013118395581841469,-1000.0115356445312,-0.02886306680738926,-0.01096237450838089,0.005181192886084318
383,285,-0.06679398566484451,-0.013118395581841469,-1000.0115356445312,-0.02886306680738926,-0.01096237450838089,0.005181192886084318
395,285,-0.06679398566484451,-0.013118395581841469,-1000.0115356445312,-0.02886306680738926,-0.01096237450838089,0.005181192886084318
344,285,-0.06679398566484451,-0.013118395581841469,-1000.0115356445312,-0.02886306680738926,-0.01096237450838089,0.005181192886084318
309,285,-0.06679398566484451,-0.013118395581841469,-1000.0115356445312,-0.02886306680738926,-0.01096237450838089,0.005181192886084318
314,285,-0.06679398566484451,-0.013118395581841469,-1000.0115356445312,-0.02886306680738926,-0.01096237450838089,0.005181192886084318
326,285,-0.06679398566484451,-0.013118395581841469,-1000.0115356445312,-0.02886306680738926,-0.01096237450838089,0.005181192886084318
438,286,0.024258079007267952,0.1128203272819519,-1000.0005493164062,0.008497055619955063,0.0033136236015707254,-0.0021260310895740986
427,286,0.024258079007267952,0.1128203272819519,-1000.0005493164062,0.008497055619955063,0.0033136236015707254,-0.0021260310895740986
426,286,0.024258079007267952,0.1128203272819519,-1000.0005493164062,0.008497055619955063,0.0033136236015707254,-0.0021260310895740986
455,286,0.024258079007267952,0.1128203272819519,-1000.0005493164062,0.008497055619955063,0.0033136236015707254,-0.0021260310895740986
369,286,0.024258079007267952,0.1128203272819519,-1000.0005493164062,0.008497055619955063,0.0033136236015707254,-0.0021260310895740986
358,286,0.024258079007267952,0.1128203272819519,-1000.0005493164062,0.008497055619955063,0.0033136236015707254,-0.0021260310895740986
357,286,0.024258079007267952,0.1128203272819519,-1000.0005493164062,0.008497055619955063,0.0033136236015707254,-0.0021260310895740986
386,286,0.024258079007267952,0.1128203272819519,-1000.0005493164062,0.008497055619955063,0.0033136236015707254,-0.0021260310895740986
455,287,0.031226303428411484,0.11082497239112854,-1000.0004272460938,-0.01195980329066515,0.0011859501246362925,-0.014163337647914886
426,287,0.031226303428411484,0.11082497239112854,-1000.0004272460938,-0.01195980329066515,0.0011859501246362925,-0.014163337647914886
435,287,0.031226303428411484,0.11082497239112854,-1000.0004272460938,-0.01195980329066515,0.0011859501246362925,-0.014163337647914886
440,287,0.031226303428411484,0.11082497239112854,-1000.0004272460938,-0.01195980329066515,0.0011859501246362925,-0.014163337647914886
386,287,0.031226303428411484,0.11082497239112854,-1000.0004272460938,-0.01195980329066515,0.0011859501246362925,-0.014163337647914886
357,287,0.031226303428411484,0.11082497239112854,-1000.0004272460938,-0.01195980329066515,0.0011859501246362925,-0.014163337647914886
366,287,0.031226303428411484,0.11082497239112854,-1000.0004272460938,-0.01195980329066515,0.0011859501246362925,-0.014163337647914886
371,287,0.031226303428411484,0.11082497239112854,-1000.0004272460938,-0.01195980329066515,0.0011859501246362925,-0.014163337647914886
436,288,0.005744995083659887,-0.002112050075083971,-999.9966430664062,-0.013671943917870522,0.007323830854147673,0.0012831611093133688
456,288,0.005744995083659887,-0.002112050075083971,-999.9966430664062,-0.013671943917870522,0.007323830854147673,0.0012831611093133688
439,288,0.005744995083659887,-0.002112050075083971,-999.9966430664062,-0.013671943917870522,0.007323830854147673,0.0012831611093133688
429,288,0.005744995083659887,-0.002112050075083971,-999.9966430664062,-0.013671943917870522,0.007323830854147673,0.0012831611093133688
367,288,0.005744995083659887,-0.002112050075083971,-999.9966430664062,-0.013671943917870522,0.007323830854147673,0.0012831611093133688
387,288,0.005744995083659887,-0.002112050075083971,-999.9966430664062,-0.013671943917870522,0.007323830854147673,0.0012831611093133688
370,288,0.005744995083659887,-0.002112050075083971,-999.9966430664062,-0.013671943917870522,0.007323830854147673,0.0012831611093133688
360,288,0.005744995083659887,-0.002112050075083971,-999.9966430664062,-0.013671943917870522,0.007323830854147673,0.0012831611093133688
427,289,0.0327567495405674,0.10751135647296906,-999.995849609375,-0.029862478375434875,0.009821141138672829,-0.008890105411410332
438,289,0.0327567495405674,0.10751135647296906,-999.995849609375,-0.029862478375434875,0.009821141138672829,-0.008890105411410332
437,289,0.0327567495405674,0.10751135647296906,-999.995849609375,-0.029862478375434875,0.009821141138672829,-0.008890105411410332
428,289,0.0327567495405674,0.10751135647296906,-999.995849609375,-0.029862478375434875,0.009821141138672829,-0.008890105411410332
358,289,0.0327567495405674,0.10751135647296906,-999.995849609375,-0.029862478375434875,0.009821141138672829,-0.008890105411410332
369,289,0.0327567495405674,0.10751135647296906,-999.995849609375,-0.029862478375434875,0.009821141138672829,-0.008890105411410332
368,289,0.0327567495405674,0.10751135647296906,-999.995849609375,-0.029862478375434875,0.009821141138672829,-0.008890105411410332
359,289,0.0327567495405674,0.10751135647296906,-999.995849609375,-0.029862478375434875,0.009821141138672829,-0.008890105411410332
466,290,0.027531534433364868,0.01688990741968155,-999.9962158203125,0.015209210105240345,0.004680756479501724,-0.023135606199502945
479,290,0.027531534433364868,0.01688990741968155,-999.9962158203125,0.015209210105240345,0.004680756479501724,-0.023135606199502945
458,290,0.027531534433364868,0.01688990741968155,-999.9962158203125,0.015209210105240345,0.004680756479501724,-0.023135606199502945
469,290,0.027531534433364868,0.01688990741968155,-999.9962158203125,0.015209210105240345,0.004680756479501724,-0.023135606199502945
397,290,0.027531534433364868,0.01688990741968155,-999.9962158203125,0.015209210105240345,0.004680756479501724,-0.023135606199502945
410,290,0.027531534433364868,0.01688990741968155,-999.9962158203125,0.015209210105240345,0.004680756479501724,-0.023135606199502945
389,290,0.027531534433364868,0.01688990741968155,-999.9962158203125,0.015209210105240345,0.004680756479501724,-0.023135606199502945
400,290,0.027531534433364868,0.01688990741968155,-999.9962158203125,0.015209210105240345,0.004680756479501724,-0.023135606199502945
482,291,-0.13333867490291595,-0.153191477060318,-1000.0198364257812,-0.010097719728946686,-0.011104636825621128,0.0038120571989566088
460,291,-0.13333867490291595,-0.153191477060318,-1000.0198364257812,-0.010097719728946686,-0.011104636825621128,0.0038120571989566088
446,291,-0.13333867490291595,-0.153191477060318,-1000.0198364257812,-0.010097719728946686,-0.011104636825621128,0.0038120571989566088
447,291,-0.13333867490291595,-0.153191477060318,-1000.0198364257812,-0.010097719728946686,-0.011104636825621128,0.0038120571989566088
413,291,-0.13333867490291595,-0.153191477060318,-1000.0198364257812,-0.010097719728946686,-0.011104636825621128,0.0038120571989566088
391,291,-0.13333867490291595,-0.153191477060318,-1000.0198364257812,-0.010097719728946686,-0.011104636825621128,0.0038120571989566088
377,291,-0.13333867490291595,-0.153191477060318,-1000.0198364257812,-0.010097719728946686,-0.011104636825621128,0.0038120571989566088
378,291,-0.13333867490291595,-0.153191477060318,-1000.0198364257812,-0.010097719728946686,-0.011104636825621128,0.0038120571989566088
470,292,-0.049423735588788986,-0.07895386219024658,-1000.0084838867188,0.0171909611672163,0.023540759459137917,0.026629719883203506
467,292,-0.049423735588788986,-0.07895386219024658,-1000.0084838867188,0.0171909611672163,0.023540759459137917,0.026629719883203506
466,292,-0.049423735588788986,-0.07895386219024658,-1000.0084838867188,0.0171909611672163,0.023540759459137917,0.026629719883203506
469,292,-0.049423735588788986,-0.07895386219024658,-1000.0084838867188,0.0171909611672163,0.023540759459137917,0.026629719883203506
401,292,-0.049423735588788986,-0.07895386219024658,-1000.0084838867188,0.0171909611672163,0.023540759459137917,0.026629719883203506
398,292,-0.049423735588788986,-0.07895386219024658,-1000.0084838867188,0.0171909611672163,0.023540759459137917,0.026629719883203506
397,292,-0.049423735588788986,-0.07895386219024658,-1000.0084838867188,0.0171909611672163,0.023540759459137917,0.026629719883203506
400,292,-0.049423735588788986,-0.07895386219024658,-1000.0084838867188,0.0171909611672163,0.023540759459137917,0.026629719883203506
461,293,0.08865786343812943,0.14847412705421448,-999.9882202148438,0.02304908260703087,-0.034612372517585754,-0.021623458713293076
478,293,0.08865786343812943,0.14847412705421448,-999.9882202148438,0.02304908260703087,-0.034612372517585754,-0.021623458713293076
466,293,0.08865786343812943,0.14847412705421448,-999.9882202148438,0.02304908260703087,-0.034612372517585754,-0.021623458713293076
467,293,0.08865786343812943,0.14847412705421448,-999.9882202148438,0.02304908260703087,-0.034612372517585754,-0.021623458713293076
392,293,0.08865786343812943,0.14847412705421448,-999.9882202148438,0.02304908260703087,-0.034612372517585754,-0.021623458713293076
409,293,0.08865786343812943,0.14847412705421448,-999.9882202148438,0.02304908260703087,-0.034612372517585754,-0.021623458713293076
397,293,0.08865786343812943,0.14847412705421448,-999.9882202148438,0.02304908260703087,-0.034612372517585754,-0.021623458713293076
398,293,0.08865786343812943,0.14847412705421448,-999.9882202148438,0.02304908260703087,-0.034612372517585754,-0.021623458713293076
441,294,-0.024520782753825188,-0.04997712001204491,-999.9992065429688,-0.013286950066685677,-0.010107439011335373,0.018133575096726418
454,294,-0.024520782753825188,-0.04997712001204491,-999.9992065429688,-0.013286950066685677,-0.010107439011335373,0.018133575096726418
479,294,-0.024520782753825188,-0.04997712001204491,-999.9992065429688,-0.013286950066685677,-0.010107439011335373,0.018133575096726418
466,294,-0.024520782753825188,-0.04997712001204491,-999.9992065429688,-0.013286950066685677,-0.010107439011335373,0.018133575096726418
372,294,-0.024520782753825188,-0.04997712001204491,-999.9992065429688,-0.013286950066685677,-0.010107439011335373,0.018133575096726418
385,294,-0.024520782753825188,-0.04997712001204491,-999.9992065429688,-0.013286950066685677,-0.010107439011335373,0.018133575096726418
410,294,-0.024520782753825188,-0.04997712001204491,-999.9992065429688,-0.013286950066685677,-0.010107439011335373,0.018133575096726418
397,294,-0.024520782753825188,-0.04997712001204491,-999.9992065429688,-0.013286950066685677,-0.010107439011335373,0.018133575096726418
481,295,-0.19167356193065643,-0.10308197885751724,-1000.0306396484375,-0.046772755682468414,-0.04806368798017502,-0.04367472976446152
465,295,-0.19167356193065643,-0.10308197885751724,-1000.0306396484375,-0.046772755682468414,-0.04806368798017502,-0.04367472976446152
445,295,-0.19167356193065643,-0.10308197885751724,-1000.0306396484375,-0.046772755682468414,-0.04806368798017502,-0.04367472976446152
453,295,-0.19167356193065643,-0.10308197885751724,-1000.0306396484375,-0.046772755682468414,-0.04806368798017502,-0.04367472976446152
412,295,-0.19167356193065643,-0.10308197885751724,-1000.0306396484375,-0.046772755682468414,-0.04806368798017502,-0.04367472976446152
396,295,-0.19167356193065643,-0.10308197885751724,-1000.0306396484375,-0.046772755682468414,-0.04806368798017502,-0.04367472976446152
376,295,-0.19167356193065643,-0.10308197885751724,-1000.0306396484375,-0.046772755682468414,-0.04806368798017502,-0.04367472976446152
384,295,-0.19167356193065643,-0.10308197885751724,-1000.0306396484375,-0.046772755682468414,-0.04806368798017502,-0.04367472976446152
475,296,0.04489202797412872,0.08051308989524841,-999.9816284179688,0.023457735776901245,0.05132916197180748,-0.02354411780834198
470,296,0.04489202797412872,0.08051308989524841,-999.9816284179688,0.023457735776901245,0.05132916197180748,-0.02354411780834198
449,296,0.04489202797412872,0.08051308989524841,-999.9816284179688,0.023457735776901245,0.05132916197180748,-0.02354411780834198
463,296,0.04489202797412872,0.08051308989524841,-999.9816284179688,0.023457735776901245,0.05132916197180748,-0.02354411780834198
406,296,0.04489202797412872,0.08051308989524841,-999.9816284179688,0.023457735776901245,0.05132916197180748,-0.02354411780834198
401,296,0.04489202797412872,0.08051308989524841,-999.9816284179688,0.023457735776901245,0.05132916197180748,-0.02354411780834198
380,296,0.04489202797412872,0.08051308989524841,-999.9816284179688,0.023457735776901245,0.05132916197180748,-0.02354411780834198
394,296,0.04489202797412872,0.08051308989524841,-999.9816284179688,0.023457735776901245,0.05132916197180748,-0.02354411780834198
449,297,-0.09688262641429901,-0.05987132340669632,-999.9982299804688,-0.058604784309864044,-0.0011077235685661435,-0.027461985126137733
464,297,-0.09688262641429901,-0.05987132340669632,-999.9982299804688,-0.058604784309864044,-0.0011077235685661435,-0.027461985126137733
472,297,-0.09688262641429901,-0.05987132340669632,-999.9982299804688,-0.058604784309864044,-0.0011077235685661435,-0.027461985126137733
473,297,-0.09688262641429901,-0.05987132340669632,-999.9982299804688,-0.058604784309864044,-0.0011077235685661435,-0.027461985126137733
380,297,-0.09688262641429901,-0.05987132340669632,-999.9982299804688,-0.058604784309864044,-0.0011077235685661435,-0.027461985126137733
395,297,-0.09688262641429901,-0.05987132340669632,-999.9982299804688,-0.058604784309864044,-0.0011077235685661435,-0.027461985126137733
403,297,-0.09688262641429901,-0.05987132340669632,-999.9982299804688,-0.058604784309864044,-0.0011077235685661435,-0.027461985126137733
404,297,-0.09688262641429901,-0.05987132340669632,-999.9982299804688,-0.058604784309864044,-0.0011077235685661435,-0.027461985126137733
456,298,6.745601422153413e-05,0.03282739594578743,-999.9625244140625,0.08561407029628754,-0.012479833327233791,0.033405352383852005
437,298,6.745601422153413e-05,0.03282739594578743,-999.9625244140625,0.08561407029628754,-0.012479833327233791,0.033405352383852005
476,298,6.745601422153413e-05,0.03282739594578743,-999.9625244140625,0.08561407029628754,-0.012479833327233791,0.033405352383852005
459,298,6.745601422153413e-05,0.03282739594578743,-999.9625244140625,0.08561407029628754,-0.012479833327233791,0.033405352383852005
387,298,6.745601422153413e-05,0.03282739594578743,-999.9625244140625,0.08561407029628754,-0.012479833327233791,0.033405352383852005
368,298,6.745601422153413e-05,0.03282739594578743,-999.9625244140625,0.08561407029628754,-0.012479833327233791,0.033405352383852005
407,298,6.745601422153413e-05,0.03282739594578743,-999.9625244140625,0.08561407029628754,-0.012479833327233791,0.033405352383852005
390,298,6.745601422153413e-05,0.03282739594578743,-999.9625244140625,0.08561407029628754,-0.012479833327233791,0.033405352383852005
483,299,-0.061194926500320435,-0.1429244428873062,-1000.03271484375,0.0049786618910729885,-0.009875189512968063,-0.02730455994606018
439,299,-0.061194926500320435,-0.1429244428873062,-1000.03271484375,0.0049786618910729885,-0.009875189512968063,-0.02730455994606018
456,299,-0.061194926500320435,-0.1429244428873062,-1000.03271484375,0.0049786618910729885,-0.009875189512968063,-0.02730455994606018
459,299,-0.061194926500320435,-0.1429244428873062,-1000.03271484375,0.0049786618910729885,-0.009875189512968063,-0.02730455994606018
414,299,-0.061194926500320435,-0.1429244428873062,-1000.03271484375,0.0049786618910729885,-0.009875189512968063,-0.02730455994606018
370,299,-0.061194926500320435,-0.1429244428873062,-1000.03271484375,0.0049786618910729885,-0.009875189512968063,-0.02730455994606018
387,299,-0.061194926500320435,-0.1429244428873062,-1000.03271484375,0.0049786618910729885,-0.009875189512968063,-0.02730455994606018
390,299,-0.061194926500320435,-0.1429244428873062,-1000.03271484375,0.0049786618910729885,-0.009875189512968063,-0.02730455994606018
443,300,-0.08595918118953705,-0.07616415619850159,-1000.0194702148438,-0.011464770883321762,-0.017381267622113228,0.011826281435787678
444,300,-0.08595918118953705,-0.07616415619850159,-1000.0194702148438,-0.011464770883321762,-0.017381267622113228,0.011826281435787678
480,300,-0.08595918118953705,-0.07616415619850159,-1000.0194702148438,-0.011464770883321762,-0.017381267622113228,0.011826281435787678
458,300,-0.08595918118953705,-0.07616415619850159,-1000.0194702148438,-0.011464770883321762,-0.017381267622113228,0.011826281435787678
374,300,-0.08595918118953705,-0.07616415619850159,-1000.0194702148438,-0.011464770883321762,-0.017381267622113228,0.011826281435787678
375,300,-0.08595918118953705,-0.07616415619850159,-1000.0194702148438,-0.011464770883321762,-0.017381267622113228,0.011826281435787678
411,300,-0.08595918118953705,-0.07616415619850159,-1000.0194702148438,-0.011464770883321762,-0.017381267622113228,0.011826281435787678
389,300,-0.08595918118953705,-0.07616415619850159,-1000.0194702148438,-0.011464770883321762,-0.017381267622113228,0.011826281435787678
428,301,0.04854103550314903,0.1084560677409172,-1000.0023193359375,-0.040094196796417236,0.002006115159019828,0.0025096170138567686
437,301,0.04854103550314903,0.1084560677409172,-1000.0023193359375,-0.040094196796417236,0.002006115159019828,0.0025096170138567686
456,301,0.04854103550314903,0.1084560677409172,-1000.0023193359375,-0.040094196796417236,0.002006115159019828,0.0025096170138567686
436,301,0.04854103550314903,0.1084560677409172,-1000.0023193359375,-0.040094196796417236,0.002006115159019828,0.0025096170138567686
359,301,0.04854103550314903,0.1084560677409172,-1000.0023193359375,-0.040094196796417236,0.002006115159019828,0.0025096170138567686
368,301,0.04854103550314903,0.1084560677409172,-1000.0023193359375,-0.040094196796417236,0.002006115159019828,0.0025096170138567686
387,301,0.04854103550314903,0.1084560677409172,-1000.0023193359375,-0.040094196796417236,0.002006115159019828,0.0025096170138567686
367,301,0.04854103550314903,0.1084560677409172,-1000.0023193359375,-0.040094196796417236,0.002006115159019828,0.0025096170138567686
425,302,0.04569598659873009,0.13528452813625336,-999.9962768554688,0.020531101152300835,-0.006012667436152697,-0.002579690655693412
471,302,0.04569598659873009,0.13528452813625336,-999.9962768554688,0.020531101152300835,-0.006012667436152697,-0.002579690655693412
440,302,0.04569598659873009,0.13528452813625336,-999.9962768554688,0.020531101152300835,-0.006012667436152697,-0.002579690655693412
435,302,0.04569598659873009,0.13528452813625336,-999.9962768554688,0.020531101152300835,-0.006012667436152697,-0.002579690655693412
356,302,0.04569598659873009,0.13528452813625336,-999.9962768554688,0.020531101152300835,-0.006012667436152697,-0.002579690655693412
402,302,0.04569598659873009,0.13528452813625336,-999.9962768554688,0.020531101152300835,-0.006012667436152697,-0.002579690655693412
371,302,0.04569598659873009,0.13528452813625336,-999.9962768554688,0.020531101152300835,-0.006012667436152697,-0.002579690655693412
366,302,0.04569598659873009,0.13528452813625336,-999.9962768554688,0.020531101152300835,-0.006012667436152697,-0.002579690655693412
441,303,0.0423450767993927,-0.0009936160640791059,-999.9976806640625,0.014015424996614456,-0.0013925512321293354,-0.00280213775113225
424,303,0.0423450767993927,-0.0009936160640791059,-999.9976806640625,0.014015424996614456,-0.0013925512321293354,-0.00280213775113225
434,303,0.0423450767993927,-0.0009936160640791059,-999.9976806640625,0.014015424996614456,-0.0013925512321293354,-0.00280213775113225
454,303,0.0423450767993927,-0.0009936160640791059,-999.9976806640625,0.014015424996614456,-0.0013925512321293354,-0.00280213775113225
372,303,0.0423450767993927,-0.0009936160640791059,-999.9976806640625,0.014015424996614456,-0.0013925512321293354,-0.00280213775113225
355,303,0.0423450767993927,-0.0009936160640791059,-999.9976806640625,0.014015424996614456,-0.0013925512321293354,-0.00280213775113225
365,303,0.0423450767993927,-0.0009936160640791059,-999.9976806640625,0.014015424996614456,-0.0013925512321293354,-0.00280213775113225
385,303,0.0423450767993927,-0.0009936160640791059,-999.9976806640625,0.014015424996614456,-0.0013925512321293354,-0.00280213775113225
442,304,0.017321033403277397,0.014232038520276546,-1000.004638671875,0.006551977712661028,-0.0002760353381745517,-0.001584542216733098
430,304,0.017321033403277397,0.014232038520276546,-1000.004638671875,0.006551977712661028,-0.0002760353381745517,-0.001584542216733098
429,304,0.017321033403277397,0.014232038520276546,-1000.004638671875,0.006551977712661028,-0.0002760353381745517,-0.001584542216733098
439,304,0.017321033403277397,0.014232038520276546,-1000.004638671875,0.006551977712661028,-0.0002760353381745517,-0.001584542216733098
373,304,0.017321033403277397,0.014232038520276546,-1000.004638671875,0.006551977712661028,-0.0002760353381745517,-0.001584542216733098
361,304,0.017321033403277397,0.014232038520276546,-1000.004638671875,0.006551977712661028,-0.0002760353381745517,-0.001584542216733098
360,304,0.017321033403277397,0.014232038520276546,-1000.004638671875,0.006551977712661028,-0.0002760353381745517,-0.001584542216733098
370,304,0.017321033403277397,0.014232038520276546,-1000.004638671875,0.006551977712661028,-0.0002760353381745517,-0.001584542216733098
454,305,0.020722419023513794,0.005511682014912367,-1000.003173828125,-0.0042432392947375774,0.0006299682427197695,0.0007972523453645408
434,305,0.020722419023513794,0.005511682014912367,-1000.003173828125,-0.0042432392947375774,0.0006299682427197695,0.0007972523453645408
423,305,0.020722419023513794,0.005511682014912367,-1000.003173828125,-0.0042432392947375774,0.0006299682427197695,0.0007972523453645408
443,305,0.020722419023513794,0.005511682014912367,-1000.003173828125,-0.0042432392947375774,0.0006299682427197695,0.0007972523453645408
385,305,0.020722419023513794,0.005511682014912367,-1000.003173828125,-0.0042432392947375774,0.0006299682427197695,0.0007972523453645408
365,305,0.020722419023513794,0.005511682014912367,-1000.003173828125,-0.0042432392947375774,0.0006299682427197695,0.0007972523453645408
354,305,0.020722419023513794,0.005511682014912367,-1000.003173828125,-0.0042432392947375774,0.0006299682427197695,0.0007972523453645408
374,305,0.020722419023513794,0.005511682014912367,-1000.003173828125,-0.0042432392947375774,0.0006299682427197695,0.0007972523453645408
478,306,-0.06124205142259598,-0.043996430933475494,-1000.0089721679688,-0.05556241050362587,0.003246267093345523,-0.0060861120000481606
471,306,-0.06124205142259598,-0.043996430933475494,-1000.0089721679688,-0.05556241050362587,0.003246267093345523,-0.0060861120000481606
441,306,-0.06124205142259598,-0.043996430933475494,-1000.0089721679688,-0.05556241050362587,0.003246267093345523,-0.0060861120000481606
466,306,-0.06124205142259598,-0.043996430933475494,-1000.0089721679688,-0.05556241050362587,0.003246267093345523,-0.0060861120000481606
409,306,-0.06124205142259598,-0.043996430933475494,-1000.0089721679688,-0.05556241050362587,0.003246267093345523,-0.0060861120000481606
402,306,-0.06124205142259598,-0.043996430933475494,-1000.0089721679688,-0.05556241050362587,0.003246267093345523,-0.0060861120000481606
372,306,-0.06124205142259598,-0.043996430933475494,-1000.0089721679688,-0.05556241050362587,0.003246267093345523,-0.0060861120000481606
397,306,-0.06124205142259598,-0.043996430933475494,-1000.0089721679688,-0.05556241050362587,0.003246267093345523,-0.0060861120000481606
443,307,0.04645659029483795,-0.0060167573392391205,-999.9952392578125,-0.012874463573098183,-0.00502495002001524,-0.006644131615757942
423,307,0.04645659029483795,-0.0060167573392391205,-999.9952392578125,-0.012874463573098183,-0.00502495002001524,-0.006644131615757942
422,307,0.04645659029483795,-0.0060167573392391205,-999.9952392578125,-0.012874463573098183,-0.00502495002001524,-0.006644131615757942
444,307,0.04645659029483795,-0.0060167573392391205,-999.9952392578125,-0.012874463573098183,-0.00502495002001524,-0.006644131615757942
374,307,0.04645659029483795,-0.0060167573392391205,-999.9952392578125,-0.012874463573098183,-0.00502495002001524,-0.006644131615757942
354,307,0.04645659029483795,-0.0060167573392391205,-999.9952392578125,-0.012874463573098183,-0.00502495002001524,-0.006644131615757942
353,307,0.04645659029483795,-0.0060167573392391205,-999.9952392578125,-0.012874463573098183,-0.00502495002001524,-0.006644131615757942
375,307,0.04645659029483795,-0.0060167573392391205,-999.9952392578125,-0.012874463573098183,-0.00502495002001524,-0.006644131615757942
444,308,0.08808095753192902,0.03758547082543373,-1000.005859375,0.010558944195508957,-0.003936527296900749,0.004312546458095312
422,308,0.08808095753192902,0.03758547082543373,-1000.005859375,0.010558944195508957,-0.003936527296900749,0.004312546458095312
421,308,0.08808095753192902,0.03758547082543373,-1000.005859375,0.010558944195508957,-0.003936527296900749,0.004312546458095312
445,308,0.08808095753192902,0.03758547082543373,-1000.005859375,0.010558944195508957,-0.003936527296900749,0.004312546458095312
375,308,0.08808095753192902,0.03758547082543373,-1000.005859375,0.010558944195508957,-0.003936527296900749,0.004312546458095312
353,308,0.08808095753192902,0.03758547082543373,-1000.005859375,0.010558944195508957,-0.003936527296900749,0.004312546458095312
352,308,0.08808095753192902,0.03758547082543373,-1000.005859375,0.010558944195508957,-0.003936527296900749,0.004312546458095312
376,308,0.08808095753192902,0.03758547082543373,-1000.005859375,0.010558944195508957,-0.003936527296900749,0.004312546458095312
475,309,-0.019394077360630035,0.06898847222328186,-1000.0137329101562,0.012370937503874302,0.006532181054353714,0.035135649144649506
463,309,-0.019394077360630035,0.06898847222328186,-1000.0137329101562,0.012370937503874302,0.006532181054353714,0.035135649144649506
474,309,-0.019394077360630035,0.06898847222328186,-1000.0137329101562,0.012370937503874302,0.006532181054353714,0.035135649144649506
468,309,-0.019394077360630035,0.06898847222328186,-1000.0137329101562,0.012370937503874302,0.006532181054353714,0.035135649144649506
406,309,-0.019394077360630035,0.06898847222328186,-1000.0137329101562,0.012370937503874302,0.006532181054353714,0.035135649144649506
394,309,-0.019394077360630035,0.06898847222328186,-1000.0137329101562,0.012370937503874302,0.006532181054353714,0.035135649144649506
405,309,-0.019394077360630035,0.06898847222328186,-1000.0137329101562,0.012370937503874302,0.006532181054353714,0.035135649144649506
399,309,-0.019394077360630035,0.06898847222328186,-1000.0137329101562,0.012370937503874302,0.006532181054353714,0.035135649144649506
430,310,0.027540279552340508,0.005362672731280327,-999.9953002929688,0.03136353939771652,0.001018836977891624,-0.004488259553909302
442,310,0.027540279552340508,0.005362672731280327,-999.9953002929688,0.03136353939771652,0.001018836977891624,-0.004488259553909302
450,310,0.027540279552340508,0.005362672731280327,-999.9953002929688,0.03136353939771652,0.001018836977891624,-0.004488259553909302
415,310,0.027540279552340508,0.005362672731280327,-999.9953002929688,0.03136353939771652,0.001018836977891624,-0.004488259553909302
361,310,0.027540279552340508,0.005362672731280327,-999.9953002929688,0.03136353939771652,0.001018836977891624,-0.004488259553909302
373,310,0.027540279552340508,0.005362672731280327,-999.9953002929688,0.03136353939771652,0.001018836977891624,-0.004488259553909302
381,310,0.027540279552340508,0.005362672731280327,-999.9953002929688,0.03136353939771652,0.001018836977891624,-0.004488259553909302
346,310,0.027540279552340508,0.005362672731280327,-999.9953002929688,0.03136353939771652,0.001018836977891624,-0.004488259553909302
445,311,0.057097792625427246,-0.011044693179428577,-999.9923706054688,-0.004122065380215645,0.0023119112011045218,0.005180041771382093
421,311,0.057097792625427246,-0.011044693179428577,-999.9923706054688,-0.004122065380215645,0.0023119112011045218,0.005180041771382093
433,311,0.057097792625427246,-0.011044693179428577,-999.9923706054688,-0.004122065380215645,0.0023119112011045218,0.005180041771382093
453,311,0.057097792625427246,-0.011044693179428577,-999.9923706054688,-0.004122065380215645,0.0023119112011045218,0.005180041771382093
376,311,0.057097792625427246,-0.011044693179428577,-999.9923706054688,-0.004122065380215645,0.0023119112011045218,0.005180041771382093
352,311,0.057097792625427246,-0.011044693179428577,-999.9923706054688,-0.004122065380215645,0.0023119112011045218,0.005180041771382093
364,311,0.057097792625427246,-0.011044693179428577,-999.9923706054688,-0.004122065380215645,0.0023119112011045218,0.005180041771382093
384,311,0.057097792625427246,-0.011044693179428577,-999.9923706054688,-0.004122065380215645,0.0023119112011045218,0.005180041771382093
453,312,0.06682077050209045,0.04851724952459335,-1000.0071411132812,-0.023320356383919716,-0.006978154648095369,0.0016706628957763314
433,312,0.06682077050209045,0.04851724952459335,-1000.0071411132812,-0.023320356383919716,-0.006978154648095369,0.0016706628957763314
420,312,0.06682077050209045,0.04851724952459335,-1000.0071411132812,-0.023320356383919716,-0.006978154648095369,0.0016706628957763314
446,312,0.06682077050209045,0.04851724952459335,-1000.0071411132812,-0.023320356383919716,-0.006978154648095369,0.0016706628957763314
384,312,0.06682077050209045,0.04851724952459335,-1000.0071411132812,-0.023320356383919716,-0.006978154648095369,0.0016706628957763314
364,312,0.06682077050209045,0.04851724952459335,-1000.0071411132812,-0.023320356383919716,-0.006978154648095369,0.0016706628957763314
351,312,0.06682077050209045,0.04851724952459335,-1000.0071411132812,-0.023320356383919716,-0.006978154648095369,0.0016706628957763314
377,312,0.06682077050209045,0.04851724952459335,-1000.0071411132812,-0.023320356383919716,-0.006978154648095369,0.0016706628957763314
446,313,0.03438402712345123,0.07432229071855545,-999.9923095703125,-0.029507320374250412,0.003394440980628133,-0.0029501488897949457
420,313,0.03438402712345123,0.07432229071855545,-999.9923095703125,-0.029507320374250412,0.003394440980628133,-0.0029501488897949457
419,313,0.03438402712345123,0.07432229071855545,-999.9923095703125,-0.029507320374250412,0.003394440980628133,-0.0029501488897949457
447,313,0.03438402712345123,0.07432229071855545,-999.9923095703125,-0.029507320374250412,0.003394440980628133,-0.0029501488897949457
377,313,0.03438402712345123,0.07432229071855545,-999.9923095703125,-0.029507320374250412,0.003394440980628133,-0.0029501488897949457
351,313,0.03438402712345123,0.07432229071855545,-999.9923095703125,-0.029507320374250412,0.003394440980628133,-0.0029501488897949457
350,313,0.03438402712345123,0.07432229071855545,-999.9923095703125,-0.029507320374250412,0.003394440980628133,-0.0029501488897949457
378,313,0.03438402712345123,0.07432229071855545,-999.9923095703125,-0.029507320374250412,0.003394440980628133,-0.0029501488897949457
447,314,0.008570956066250801,0.043381862342357635,-1000.0061645507812,0.0034543222282081842,-0.008762151934206486,0.004558596294373274
419,314,0.008570956066250801,0.043381862342357635,-1000.0061645507812,0.0034543222282081842,-0.008762151934206486,0.004558596294373274
432,314,0.008570956066250801,0.043381862342357635,-1000.0061645507812,0.0034543222282081842,-0.008762151934206486,0.004558596294373274
452,314,0.008570956066250801,0.043381862342357635,-1000.0061645507812,0.0034543222282081842,-0.008762151934206486,0.004558596294373274
378,314,0.008570956066250801,0.043381862342357635,-1000.0061645507812,0.0034543222282081842,-0.008762151934206486,0.004558596294373274
350,314,0.008570956066250801,0.043381862342357635,-1000.0061645507812,0.0034543222282081842,-0.008762151934206486,0.004558596294373274
363,314,0.008570956066250801,0.043381862342357635,-1000.0061645507812,0.0034543222282081842,-0.008762151934206486,0.004558596294373274
383,314,0.008570956066250801,0.043381862342357635,-1000.0061645507812,0.0034543222282081842,-0.008762151934206486,0.004558596294373274
452,315,0.006072204560041428,0.03429644554853439,-999.9949951171875,0.008177177980542183,0.014597582630813122,-0.0021986677311360836
432,315,0.006072204560041428,0.03429644554853439,-999.9949951171875,0.008177177980542183,0.014597582630813122,-0.0021986677311360836
418,315,0.006072204560041428,0.03429644554853439,-999.9949951171875,0.008177177980542183,0.014597582630813122,-0.0021986677311360836
448,315,0.006072204560041428,0.03429644554853439,-999.9949951171875,0.008177177980542183,0.014597582630813122,-0.0021986677311360836
383,315,0.006072204560041428,0.03429644554853439,-999.9949951171875,0.008177177980542183,0.014597582630813122,-0.0021986677311360836
363,315,0.006072204560041428,0.03429644554853439,-999.9949951171875,0.008177177980542183,0.014597582630813122,-0.0021986677311360836
349,315,0.006072204560041428,0.03429644554853439,-999.9949951171875,0.008177177980542183,0.014597582630813122,-0.0021986677311360836
379,315,0.006072204560041428,0.03429644554853439,-999.9949951171875,0.008177177980542183,0.014597582630813122,-0.0021986677311360836
472,316,0.10902397334575653,0.11739540845155716,-999.9979248046875,0.04595944285392761,0.009025130420923233,0.006537935696542263
417,316,0.10902397334575653,0.11739540845155716,-999.9979248046875,0.04595944285392761,0.009025130420923233,0.006537935696542263
416,316,0.10902397334575653,0.11739540845155716,-999.9979248046875,0.04595944285392761,0.009025130420923233,0.006537935696542263
473,316,0.10902397334575653,0.11739540845155716,-999.9979248046875,0.04595944285392761,0.009025130420923233,0.006537935696542263
403,316,0.10902397334575653,0.11739540845155716,-999.9979248046875,0.04595944285392761,0.009025130420923233,0.006537935696542263
348,316,0.10902397334575653,0.11739540845155716,-999.9979248046875,0.04595944285392761,0.009025130420923233,0.006537935696542263
347,316,0.10902397334575653,0.11739540845155716,-999.9979248046875,0.04595944285392761,0.009025130420923233,0.006537935696542263
404,316,0.10902397334575653,0.11739540845155716,-999.9979248046875,0.04595944285392761,0.009025130420923233,0.006537935696542263
451,317,0.0018022704171016812,0.03256500884890556,-1000.0030517578125,0.006808910518884659,0.0029185910243541002,-0.00021707748237531632
431,317,0.0018022704171016812,0.03256500884890556,-1000.0030517578125,0.006808910518884659,0.0029185910243541002,-0.00021707748237531632
415,317,0.0018022704171016812,0.03256500884890556,-1000.0030517578125,0.006808910518884659,0.0029185910243541002,-0.00021707748237531632
450,317,0.0018022704171016812,0.03256500884890556,-1000.0030517578125,0.006808910518884659,0.0029185910243541002,-0.00021707748237531632
382,317,0.0018022704171016812,0.03256500884890556,-1000.0030517578125,0.006808910518884659,0.0029185910243541002,-0.00021707748237531632
362,317,0.0018022704171016812,0.03256500884890556,-1000.0030517578125,0.006808910518884659,0.0029185910243541002,-0.00021707748237531632
346,317,0.0018022704171016812,0.03256500884890556,-1000.0030517578125,0.006808910518884659,0.0029185910243541002,-0.00021707748237531632
381,317,0.0018022704171016812,0.03256500884890556,-1000.0030517578125,0.006808910518884659,0.0029185910243541002,-0.00021707748237531632
474,318,-0.11276303976774216,-0.17979589104652405,-1000.0357666015625,-0.031207239255309105,0.013259883038699627,0.0280804131180048
450,318,-0.11276303976774216,-0.17979589104652405,-1000.0357666015625,-0.031207239255309105,0.013259883038699627,0.0280804131180048
442,318,-0.11276303976774216,-0.17979589104652405,-1000.0357666015625,-0.031207239255309105,0.013259883038699627,0.0280804131180048
457,318,-0.11276303976774216,-0.17979589104652405,-1000.0357666015625,-0.031207239255309105,0.013259883038699627,0.0280804131180048
405,318,-0.11276303976774216,-0.17979589104652405,-1000.0357666015625,-0.031207239255309105,0.013259883038699627,0.0280804131180048
381,318,-0.11276303976774216,-0.17979589104652405,-1000.0357666015625,-0.031207239255309105,0.013259883038699627,0.0280804131180048
373,318,-0.11276303976774216,-0.17979589104652405,-1000.0357666015625,-0.031207239255309105,0.013259883038699627,0.0280804131180048
388,318,-0.11276303976774216,-0.17979589104652405,-1000.0357666015625,-0.031207239255309105,0.013259883038699627,0.0280804131180048
473,319,-0.05582677572965622,-0.13575389981269836,-1000.0175170898438,-0.01779700256884098,-0.020701315253973007,0.012033532373607159
451,319,-0.05582677572965622,-0.13575389981269836,-1000.0175170898438,-0.01779700256884098,-0.020701315253973007,0.012033532373607159
463,319,-0.05582677572965622,-0.13575389981269836,-1000.0175170898438,-0.01779700256884098,-0.020701315253973007,0.012033532373607159
449,319,-0.05582677572965622,-0.13575389981269836,-1000.0175170898438,-0.01779700256884098,-0.020701315253973007,0.012033532373607159
404,319,-0.05582677572965622,-0.13575389981269836,-1000.0175170898438,-0.01779700256884098,-0.020701315253973007,0.012033532373607159
382,319,-0.05582677572965622,-0.13575389981269836,-1000.0175170898438,-0.01779700256884098,-0.020701315253973007,0.012033532373607159
394,319,-0.05582677572965622,-0.13575389981269836,-1000.0175170898438,-0.01779700256884098,-0.020701315253973007,0.012033532373607159
380,319,-0.05582677572965622,-0.13575389981269836,-1000.0175170898438,-0.01779700256884098,-0.020701315253973007,0.012033532373607159
448,320,0.06204457953572273,0.07985053956508636,-1000.0007934570312,0.05801820382475853,-0.015181053429841995,0.009413744322955608
418,320,0.06204457953572273,0.07985053956508636,-1000.0007934570312,0.05801820382475853,-0.015181053429841995,0.009413744322955608
417,320,0.06204457953572273,0.07985053956508636,-1000.0007934570312,0.05801820382475853,-0.015181053429841995,0.009413744322955608
472,320,0.06204457953572273,0.07985053956508636,-1000.0007934570312,0.05801820382475853,-0.015181053429841995,0.009413744322955608
379,320,0.06204457953572273,0.07985053956508636,-1000.0007934570312,0.05801820382475853,-0.015181053429841995,0.009413744322955608
349,320,0.06204457953572273,0.07985053956508636,-1000.0007934570312,0.05801820382475853,-0.015181053429841995,0.009413744322955608
348,320,0.06204457953572273,0.07985053956508636,-1000.0007934570312,0.05801820382475853,-0.015181053429841995,0.009413744322955608
403,320,0.06204457953572273,0.07985053956508636,-1000.0007934570312,0.05801820382475853,-0.015181053429841995,0.009413744322955608
457,321,0.02829369530081749,0.15655305981636047,-999.964111328125,-0.007106531411409378,-0.0301218219101429,0.017220189794898033
442,321,0.02829369530081749,0.15655305981636047,-999.964111328125,-0.007106531411409378,-0.0301218219101429,0.017220189794898033
439,321,0.02829369530081749,0.15655305981636047,-999.964111328125,-0.007106531411409378,-0.0301218219101429,0.017220189794898033
483,321,0.02829369530081749,0.15655305981636047,-999.964111328125,-0.007106531411409378,-0.0301218219101429,0.017220189794898033
388,321,0.02829369530081749,0.15655305981636047,-999.964111328125,-0.007106531411409378,-0.0301218219101429,0.017220189794898033
373,321,0.02829369530081749,0.15655305981636047,-999.964111328125,-0.007106531411409378,-0.0301218219101429,0.017220189794898033
370,321,0.02829369530081749,0.15655305981636047,-999.964111328125,-0.007106531411409378,-0.0301218219101429,0.017220189794898033
414,321,0.02829369530081749,0.15655305981636047,-999.964111328125,-0.007106531411409378,-0.0301218219101429,0.017220189794898033
468,322,-0.02647501230239868,-0.058111753314733505,-1000.0053100585938,-0.05038747936487198,0.007879072800278664,0.03870557248592377
483,322,-0.02647501230239868,-0.058111753314733505,-1000.0053100585938,-0.05038747936487198,0.007879072800278664,0.03870557248592377
459,322,-0.02647501230239868,-0.058111753314733505,-1000.0053100585938,-0.05038747936487198,0.007879072800278664,0.03870557248592377
467,322,-0.02647501230239868,-0.058111753314733505,-1000.0053100585938,-0.05038747936487198,0.007879072800278664,0.03870557248592377
399,322,-0.02647501230239868,-0.058111753314733505,-1000.0053100585938,-0.05038747936487198,0.007879072800278664,0.03870557248592377
414,322,-0.02647501230239868,-0.058111753314733505,-1000.0053100585938,-0.05038747936487198,0.007879072800278664,0.03870557248592377
390,322,-0.02647501230239868,-0.058111753314733505,-1000.0053100585938,-0.05038747936487198,0.007879072800278664,0.03870557248592377
398,322,-0.02647501230239868,-0.058111753314733505,-1000.0053100585938,-0.05038747936487198,0.007879072800278664,0.03870557248592377
438,323,0.017965121194720268,-0.0792301595211029,-999.9642944335938,0.04548069089651108,-0.0021080216392874718,0.05363963171839714
455,323,0.017965121194720268,-0.0792301595211029,-999.9642944335938,0.04548069089651108,-0.0021080216392874718,0.05363963171839714
477,323,0.017965121194720268,-0.0792301595211029,-999.9642944335938,0.04548069089651108,-0.0021080216392874718,0.05363963171839714
462,323,0.017965121194720268,-0.0792301595211029,-999.9642944335938,0.04548069089651108,-0.0021080216392874718,0.05363963171839714
369,323,0.017965121194720268,-0.0792301595211029,-999.9642944335938,0.04548069089651108,-0.0021080216392874718,0.05363963171839714
386,323,0.017965121194720268,-0.0792301595211029,-999.9642944335938,0.04548069089651108,-0.0021080216392874718,0.05363963171839714
408,323,0.017965121194720268,-0.0792301595211029,-999.9642944335938,0.04548069089651108,-0.0021080216392874718,0.05363963171839714
393,323,0.017965121194720268,-0.0792301595211029,-999.9642944335938,0.04548069089651108,-0.0021080216392874718,0.05363963171839714
462,324,-0.012792682275176048,0.135746031999588,-999.9959106445312,0.00989616010338068,0.011404360644519329,-0.05842140316963196
477,324,-0.012792682275176048,0.135746031999588,-999.9959106445312,0.00989616010338068,0.011404360644519329,-0.05842140316963196
461,324,-0.012792682275176048,0.135746031999588,-999.9959106445312,0.00989616010338068,0.011404360644519329,-0.05842140316963196
467,324,-0.012792682275176048,0.135746031999588,-999.9959106445312,0.00989616010338068,0.011404360644519329,-0.05842140316963196
393,324,-0.012792682275176048,0.135746031999588,-999.9959106445312,0.00989616010338068,0.011404360644519329,-0.05842140316963196
408,324,-0.012792682275176048,0.135746031999588,-999.9959106445312,0.00989616010338068,0.011404360644519329,-0.05842140316963196
392,324,-0.012792682275176048,0.135746031999588,-999.9959106445312,0.00989616010338068,0.011404360644519329,-0.05842140316963196
398,324,-0.012792682275176048,0.135746031999588,-999.9959106445312,0.00989616010338068,0.011404360644519329,-0.05842140316963196
464,325,-0.10241485387086868,-0.11260277032852173,-1000.0101318359375,-0.04715069755911827,-0.008149330504238605,-0.008265728130936623
452,325,-0.10241485387086868,-0.11260277032852173,-1000.0101318359375,-0.04715069755911827,-0.008149330504238605,-0.008265728130936623
448,325,-0.10241485387086868,-0.11260277032852173,-1000.0101318359375,-0.04715069755911827,-0.008149330504238605,-0.008265728130936623
472,325,-0.10241485387086868,-0.11260277032852173,-1000.0101318359375,-0.04715069755911827,-0.008149330504238605,-0.008265728130936623
395,325,-0.10241485387086868,-0.11260277032852173,-1000.0101318359375,-0.04715069755911827,-0.008149330504238605,-0.008265728130936623
383,325,-0.10241485387086868,-0.11260277032852173,-1000.0101318359375,-0.04715069755911827,-0.008149330504238605,-0.008265728130936623
379,325,-0.10241485387086868,-0.11260277032852173,-1000.0101318359375,-0.04715069755911827,-0.008149330504238605,-0.008265728130936623
403,325,-0.10241485387086868,-0.11260277032852173,-1000.0101318359375,-0.04715069755911827,-0.008149330504238605,-0.008265728130936623
462,326,0.07321688532829285,0.14396733045578003,-999.98828125,-0.022324711084365845,0.04314033314585686,-0.004660198464989662
467,326,0.07321688532829285,0.14396733045578003,-999.98828125,-0.022324711084365845,0.04314033314585686,-0.004660198464989662
459,326,0.07321688532829285,0.14396733045578003,-999.98828125,-0.022324711084365845,0.04314033314585686,-0.004660198464989662
476,326,0.07321688532829285,0.14396733045578003,-999.98828125,-0.022324711084365845,0.04314033314585686,-0.004660198464989662
393,326,0.07321688532829285,0.14396733045578003,-999.98828125,-0.022324711084365845,0.04314033314585686,-0.004660198464989662
398,326,0.07321688532829285,0.14396733045578003,-999.98828125,-0.022324711084365845,0.04314033314585686,-0.004660198464989662
390,326,0.07321688532829285,0.14396733045578003,-999.98828125,-0.022324711084365845,0.04314033314585686,-0.004660198464989662
407,326,0.07321688532829285,0.14396733045578003,-999.98828125,-0.022324711084365845,0.04314033314585686,-0.004660198464989662
440,327,-0.031026029959321022,-0.18835528194904327,-999.9920654296875,0.009697703644633293,0.03043224848806858,0.03015856444835663
471,327,-0.031026029959321022,-0.18835528194904327,-999.9920654296875,0.009697703644633293,0.03043224848806858,0.03015856444835663
478,327,-0.031026029959321022,-0.18835528194904327,-999.9920654296875,0.009697703644633293,0.03043224848806858,0.03015856444835663
461,327,-0.031026029959321022,-0.18835528194904327,-999.9920654296875,0.009697703644633293,0.03043224848806858,0.03015856444835663
371,327,-0.031026029959321022,-0.18835528194904327,-999.9920654296875,0.009697703644633293,0.03043224848806858,0.03015856444835663
402,327,-0.031026029959321022,-0.18835528194904327,-999.9920654296875,0.009697703644633293,0.03043224848806858,0.03015856444835663
409,327,-0.031026029959321022,-0.18835528194904327,-999.9920654296875,0.009697703644633293,0.03043224848806858,0.03015856444835663
392,327,-0.031026029959321022,-0.18835528194904327,-999.9920654296875,0.009697703644633293,0.03043224848806858,0.03015856444835663
482,328,0.09081430733203888,0.09161856025457382,-1000.0006713867188,0.032546620815992355,-0.007378320209681988,0.04050832241773605
464,328,0.09081430733203888,0.09161856025457382,-1000.0006713867188,0.032546620815992355,-0.007378320209681988,0.04050832241773605
449,328,0.09081430733203888,0.09161856025457382,-1000.0006713867188,0.032546620815992355,-0.007378320209681988,0.04050832241773605
470,328,0.09081430733203888,0.09161856025457382,-1000.0006713867188,0.032546620815992355,-0.007378320209681988,0.04050832241773605
413,328,0.09081430733203888,0.09161856025457382,-1000.0006713867188,0.032546620815992355,-0.007378320209681988,0.04050832241773605
395,328,0.09081430733203888,0.09161856025457382,-1000.0006713867188,0.032546620815992355,-0.007378320209681988,0.04050832241773605
380,328,0.09081430733203888,0.09161856025457382,-1000.0006713867188,0.032546620815992355,-0.007378320209681988,0.04050832241773605
401,328,0.09081430733203888,0.09161856025457382,-1000.0006713867188,0.032546620815992355,-0.007378320209681988,0.04050832241773605
458,329,0.11328021436929703,-0.01979086361825466,-999.996337890625,-0.0005042554694227874,-0.03709321469068527,-0.022529251873493195
480,329,0.11328021436929703,-0.01979086361825466,-999.996337890625,-0.0005042554694227874,-0.03709321469068527,-0.022529251873493195
465,329,0.11328021436929703,-0.01979086361825466,-999.996337890625,-0.0005042554694227874,-0.03709321469068527,-0.022529251873493195
469,329,0.11328021436929703,-0.01979086361825466,-999.996337890625,-0.0005042554694227874,-0.03709321469068527,-0.022529251873493195
389,329,0.11328021436929703,-0.01979086361825466,-999.996337890625,-0.0005042554694227874,-0.03709321469068527,-0.022529251873493195
411,329,0.11328021436929703,-0.01979086361825466,-999.996337890625,-0.0005042554694227874,-0.03709321469068527,-0.022529251873493195
396,329,0.11328021436929703,-0.01979086361825466,-999.996337890625,-0.0005042554694227874,-0.03709321469068527,-0.022529251873493195
400,329,0.11328021436929703,-0.01979086361825466,-999.996337890625,-0.0005042554694227874,-0.03709321469068527,-0.022529251873493195
481,330,0.04964287951588631,0.03205995261669159,-999.975830078125,0.08636891096830368,0.04991960898041725,0.002368554472923279
453,330,0.04964287951588631,0.03205995261669159,-999.975830078125,0.08636891096830368,0.04991960898041725,0.002368554472923279
446,330,0.04964287951588631,0.03205995261669159,-999.975830078125,0.08636891096830368,0.04991960898041725,0.002368554472923279
460,330,0.04964287951588631,0.03205995261669159,-999.975830078125,0.08636891096830368,0.04991960898041725,0.002368554472923279
412,330,0.04964287951588631,0.03205995261669159,-999.975830078125,0.08636891096830368,0.04991960898041725,0.002368554472923279
384,330,0.04964287951588631,0.03205995261669159,-999.975830078125,0.08636891096830368,0.04991960898041725,0.002368554472923279
377,330,0.04964287951588631,0.03205995261669159,-999.975830078125,0.08636891096830368,0.04991960898041725,0.002368554472923279
391,330,0.04964287951588631,0.03205995261669159,-999.975830078125,0.08636891096830368,0.04991960898041725,0.002368554472923279
470,331,-0.05372278764843941,0.04083975404500961,-999.9967041015625,-0.04734872654080391,-0.007290250156074762,-0.03945421054959297
469,331,-0.05372278764843941,0.04083975404500961,-999.9967041015625,-0.04734872654080391,-0.007290250156074762,-0.03945421054959297
460,331,-0.05372278764843941,0.04083975404500961,-999.9967041015625,-0.04734872654080391,-0.007290250156074762,-0.03945421054959297
482,331,-0.05372278764843941,0.04083975404500961,-999.9967041015625,-0.04734872654080391,-0.007290250156074762,-0.03945421054959297
401,331,-0.05372278764843941,0.04083975404500961,-999.9967041015625,-0.04734872654080391,-0.007290250156074762,-0.03945421054959297
400,331,-0.05372278764843941,0.04083975404500961,-999.9967041015625,-0.04734872654080391,-0.007290250156074762,-0.03945421054959297
391,331,-0.05372278764843941,0.04083975404500961,-999.9967041015625,-0.04734872654080391,-0.007290250156074762,-0.03945421054959297
413,331,-0.05372278764843941,0.04083975404500961,-999.9967041015625,-0.04734872654080391,-0.007290250156074762,-0.03945421054959297
470,332,-0.009582377970218658,-0.08773601800203323,-1000.0050659179688,-0.0018760805251076818,-0.05766035243868828,-0.02527344413101673
475,332,-0.009582377970218658,-0.08773601800203323,-1000.0050659179688,-0.0018760805251076818,-0.05766035243868828,-0.02527344413101673
468,332,-0.009582377970218658,-0.08773601800203323,-1000.0050659179688,-0.0018760805251076818,-0.05766035243868828,-0.02527344413101673
467,332,-0.009582377970218658,-0.08773601800203323,-1000.0050659179688,-0.0018760805251076818,-0.05766035243868828,-0.02527344413101673
401,332,-0.009582377970218658,-0.08773601800203323,-1000.0050659179688,-0.0018760805251076818,-0.05766035243868828,-0.02527344413101673
406,332,-0.009582377970218658,-0.08773601800203323,-1000.0050659179688,-0.0018760805251076818,-0.05766035243868828,-0.02527344413101673
399,332,-0.009582377970218658,-0.08773601800203323,-1000.0050659179688,-0.0018760805251076818,-0.05766035243868828,-0.02527344413101673
398,332,-0.009582377970218658,-0.08773601800203323,-1000.0050659179688,-0.0018760805251076818,-0.05766035243868828,-0.02527344413101673
460,333,0.13883651793003082,0.08629819005727768,-999.996337890625,0.0007846534717828035,-0.0055661387741565704,0.05838718265295029
469,333,0.13883651793003082,0.08629819005727768,-999.996337890625,0.0007846534717828035,-0.0055661387741565704,0.05838718265295029
465,333,0.13883651793003082,0.08629819005727768,-999.996337890625,0.0007846534717828035,-0.0055661387741565704,0.05838718265295029
481,333,0.13883651793003082,0.08629819005727768,-999.996337890625,0.0007846534717828035,-0.0055661387741565704,0.05838718265295029
391,333,0.13883651793003082,0.08629819005727768,-999.996337890625,0.0007846534717828035,-0.0055661387741565704,0.05838718265295029
400,333,0.13883651793003082,0.08629819005727768,-999.996337890625,0.0007846534717828035,-0.0055661387741565704,0.05838718265295029
396,333,0.13883651793003082,0.08629819005727768,-999.996337890625,0.0007846534717828035,-0.0055661387741565704,0.05838718265295029
412,333,0.13883651793003082,0.08629819005727768,-999.996337890625,0.0007846534717828035,-0.0055661387741565704,0.05838718265295029
471,334,0.03424059972167015,0.08666884154081345,-1000.0018310546875,0.02520039863884449,-0.0007166637224145234,-0.0016734624514356256
425,334,0.03424059972167015,0.08666884154081345,-1000.0018310546875,0.02520039863884449,-0.0007166637224145234,-0.0016734624514356256
424,334,0.03424059972167015,0.08666884154081345,-1000.0018310546875,0.02520039863884449,-0.0007166637224145234,-0.0016734624514356256
441,334,0.03424059972167015,0.08666884154081345,-1000.0018310546875,0.02520039863884449,-0.0007166637224145234,-0.0016734624514356256
402,334,0.03424059972167015,0.08666884154081345,-1000.0018310546875,0.02520039863884449,-0.0007166637224145234,-0.0016734624514356256
356,334,0.03424059972167015,0.08666884154081345,-1000.0018310546875,0.02520039863884449,-0.0007166637224145234,-0.0016734624514356256
355,334,0.03424059972167015,0.08666884154081345,-1000.0018310546875,0.02520039863884449,-0.0007166637224145234,-0.0016734624514356256
372,334,0.03424059972167015,0.08666884154081345,-1000.0018310546875,0.02520039863884449,-0.0007166637224145234,-0.0016734624514356256
473,335,0.02368258684873581,0.053306639194488525,-999.9976196289062,0.03545444831252098,0.004570704884827137,-0.00010774651309475303
416,335,0.02368258684873581,0.053306639194488525,-999.9976196289062,0.03545444831252098,0.004570704884827137,-0.00010774651309475303
431,335,0.02368258684873581,0.053306639194488525,-999.9976196289062,0.03545444831252098,0.004570704884827137,-0.00010774651309475303
451,335,0.02368258684873581,0.053306639194488525,-999.9976196289062,0.03545444831252098,0.004570704884827137,-0.00010774651309475303
404,335,0.02368258684873581,0.053306639194488525,-999.9976196289062,0.03545444831252098,0.004570704884827137,-0.00010774651309475303
347,335,0.02368258684873581,0.053306639194488525,-999.9976196289062,0.03545444831252098,0.004570704884827137,-0.00010774651309475303
362,335,0.02368258684873581,0.053306639194488525,-999.9976196289062,0.03545444831252098,0.004570704884827137,-0.00010774651309475303
382,335,0.02368258684873581,0.053306639194488525,-999.9976196289062,0.03545444831252098,0.004570704884827137,-0.00010774651309475303
450,336,0.03570832684636116,0.04317595809698105,-999.9786987304688,-0.03131553903222084,-0.020004156976938248,-0.016264496371150017
474,336,0.03570832684636116,0.04317595809698105,-999.9786987304688,-0.03131553903222084,-0.020004156976938248,-0.016264496371150017
463,336,0.03570832684636116,0.04317595809698105,-999.9786987304688,-0.03131553903222084,-0.020004156976938248,-0.016264496371150017
451,336,0.03570832684636116,0.04317595809698105,-999.9786987304688,-0.03131553903222084,-0.020004156976938248,-0.016264496371150017
381,336,0.03570832684636116,0.04317595809698105,-999.9786987304688,-0.03131553903222084,-0.020004156976938248,-0.016264496371150017
405,336,0.03570832684636116,0.04317595809698105,-999.9786987304688,-0.03131553903222084,-0.020004156976938248,-0.016264496371150017
394,336,0.03570832684636116,0.04317595809698105,-999.9786987304688,-0.03131553903222084,-0.020004156976938248,-0.016264496371150017
382,336,0.03570832684636116,0.04317595809698105,-999.9786987304688,-0.03131553903222084,-0.020004156976938248,-0.016264496371150017
474,337,0.09193640947341919,0.07617278397083282,-999.982666015625,0.05581193044781685,0.03728025406599045,-0.048562634736299515
457,337,0.09193640947341919,0.07617278397083282,-999.982666015625,0.05581193044781685,0.03728025406599045,-0.048562634736299515
483,337,0.09193640947341919,0.07617278397083282,-999.982666015625,0.05581193044781685,0.03728025406599045,-0.048562634736299515
468,337,0.09193640947341919,0.07617278397083282,-999.982666015625,0.05581193044781685,0.03728025406599045,-0.048562634736299515
405,337,0.09193640947341919,0.07617278397083282,-999.982666015625,0.05581193044781685,0.03728025406599045,-0.048562634736299515
388,337,0.09193640947341919,0.07617278397083282,-999.982666015625,0.05581193044781685,0.03728025406599045,-0.048562634736299515
414,337,0.09193640947341919,0.07617278397083282,-999.982666015625,0.05581193044781685,0.03728025406599045,-0.048562634736299515
399,337,0.09193640947341919,0.07617278397083282,-999.982666015625,0.05581193044781685,0.03728025406599045,-0.048562634736299515
476,338,-0.09048288315534592,-0.2556270360946655,-1000.0497436523438,-0.020399799570441246,-0.041572924703359604,-0.018613498657941818
437,338,-0.09048288315534592,-0.2556270360946655,-1000.0497436523438,-0.020399799570441246,-0.041572924703359604,-0.018613498657941818
438,338,-0.09048288315534592,-0.2556270360946655,-1000.0497436523438,-0.020399799570441246,-0.041572924703359604,-0.018613498657941818
462,338,-0.09048288315534592,-0.2556270360946655,-1000.0497436523438,-0.020399799570441246,-0.041572924703359604,-0.018613498657941818
407,338,-0.09048288315534592,-0.2556270360946655,-1000.0497436523438,-0.020399799570441246,-0.041572924703359604,-0.018613498657941818
368,338,-0.09048288315534592,-0.2556270360946655,-1000.0497436523438,-0.020399799570441246,-0.041572924703359604,-0.018613498657941818
369,338,-0.09048288315534592,-0.2556270360946655,-1000.0497436523438,-0.020399799570441246,-0.041572924703359604,-0.018613498657941818
393,338,-0.09048288315534592,-0.2556270360946655,-1000.0497436523438,-0.020399799570441246,-0.041572924703359604,-0.018613498657941818
477,339,-0.07538453489542007,-0.1534891277551651,-1000.02978515625,-0.04226436838507652,-0.011938542127609253,0.017163125798106194
455,339,-0.07538453489542007,-0.1534891277551651,-1000.02978515625,-0.04226436838507652,-0.011938542127609253,0.017163125798106194
440,339,-0.07538453489542007,-0.1534891277551651,-1000.02978515625,-0.04226436838507652,-0.011938542127609253,0.017163125798106194
461,339,-0.07538453489542007,-0.1534891277551651,-1000.02978515625,-0.04226436838507652,-0.011938542127609253,0.017163125798106194
408,339,-0.07538453489542007,-0.1534891277551651,-1000.02978515625,-0.04226436838507652,-0.011938542127609253,0.017163125798106194
386,339,-0.07538453489542007,-0.1534891277551651,-1000.02978515625,-0.04226436838507652,-0.011938542127609253,0.017163125798106194
371,339,-0.07538453489542007,-0.1534891277551651,-1000.02978515625,-0.04226436838507652,-0.011938542127609253,0.017163125798106194
392,339,-0.07538453489542007,-0.1534891277551651,-1000.02978515625,-0.04226436838507652,-0.011938542127609253,0.017163125798106194
479,340,-0.03867606073617935,0.05531596764922142,-999.9932861328125,0.004134511109441519,0.02148854173719883,0.004433926660567522
454,340,-0.03867606073617935,0.05531596764922142,-999.9932861328125,0.004134511109441519,0.02148854173719883,0.004433926660567522
443,340,-0.03867606073617935,0.05531596764922142,-999.9932861328125,0.004134511109441519,0.02148854173719883,0.004433926660567522
458,340,-0.03867606073617935,0.05531596764922142,-999.9932861328125,0.004134511109441519,0.02148854173719883,0.004433926660567522
410,340,-0.03867606073617935,0.05531596764922142,-999.9932861328125,0.004134511109441519,0.02148854173719883,0.004433926660567522
385,340,-0.03867606073617935,0.05531596764922142,-999.9932861328125,0.004134511109441519,0.02148854173719883,0.004433926660567522
374,340,-0.03867606073617935,0.05531596764922142,-999.9932861328125,0.004134511109441519,0.02148854173719883,0.004433926660567522
389,340,-0.03867606073617935,0.05531596764922142,-999.9932861328125,0.004134511109441519,0.02148854173719883,0.004433926660567522
480,341,-0.07139775902032852,0.053199153393507004,-999.9752807617188,0.030396493151783943,0.05994680896401405,0.008435644209384918
444,341,-0.07139775902032852,0.053199153393507004,-999.9752807617188,0.030396493151783943,0.05994680896401405,0.008435644209384918
445,341,-0.07139775902032852,0.053199153393507004,-999.9752807617188,0.030396493151783943,0.05994680896401405,0.008435644209384918
465,341,-0.07139775902032852,0.053199153393507004,-999.9752807617188,0.030396493151783943,0.05994680896401405,0.008435644209384918
411,341,-0.07139775902032852,0.053199153393507004,-999.9752807617188,0.030396493151783943,0.05994680896401405,0.008435644209384918
375,341,-0.07139775902032852,0.053199153393507004,-999.9752807617188,0.030396493151783943,0.05994680896401405,0.008435644209384918
376,341,-0.07139775902032852,0.053199153393507004,-999.9752807617188,0.030396493151783943,0.05994680896401405,0.008435644209384918
396,341,-0.07139775902032852,0.053199153393507004,-999.9752807617188,0.030396493151783943,0.05994680896401405,0.008435644209384918
482,342,0.08439815044403076,0.015487789176404476,-999.9863891601562,0.03645759075880051,0.013244043104350567,-0.006043715868145227
447,342,0.08439815044403076,0.015487789176404476,-999.9863891601562,0.03645759075880051,0.013244043104350567,-0.006043715868145227
452,342,0.08439815044403076,0.015487789176404476,-999.9863891601562,0.03645759075880051,0.013244043104350567,-0.006043715868145227
464,342,0.08439815044403076,0.015487789176404476,-999.9863891601562,0.03645759075880051,0.013244043104350567,-0.006043715868145227
413,342,0.08439815044403076,0.015487789176404476,-999.9863891601562,0.03645759075880051,0.013244043104350567,-0.006043715868145227
378,342,0.08439815044403076,0.015487789176404476,-999.9863891601562,0.03645759075880051,0.013244043104350567,-0.006043715868145227
383,342,0.08439815044403076,0.015487789176404476,-999.9863891601562,0.03645759075880051,0.013244043104350567,-0.006043715868145227
395,342,0.08439815044403076,0.015487789176404476,-999.9863891601562,0.03645759075880051,0.013244043104350567,-0.006043715868145227
507,343,-0.030093057081103325,-0.14087936282157898,-999.9999389648438,-0.009783321060240269,-0.004016369581222534,0.0018379937391728163
496,343,-0.030093057081103325,-0.14087936282157898,-999.9999389648438,-0.009783321060240269,-0.004016369581222534,0.0018379937391728163
495,343,-0.030093057081103325,-0.14087936282157898,-999.9999389648438,-0.009783321060240269,-0.004016369581222534,0.0018379937391728163
524,343,-0.030093057081103325,-0.14087936282157898,-999.9999389648438,-0.009783321060240269,-0.004016369581222534,0.0018379937391728163
438,343,-0.030093057081103325,-0.14087936282157898,-999.9999389648438,-0.009783321060240269,-0.004016369581222534,0.0018379937391728163
427,343,-0.030093057081103325,-0.14087936282157898,-999.9999389648438,-0.009783321060240269,-0.004016369581222534,0.0018379937391728163
426,343,-0.030093057081103325,-0.14087936282157898,-999.9999389648438,-0.009783321060240269,-0.004016369581222534,0.0018379937391728163
455,343,-0.030093057081103325,-0.14087936282157898,-999.9999389648438,-0.009783321060240269,-0.004016369581222534,0.0018379937391728163
524,344,-0.0400918647646904,-0.1395140141248703,-999.9990844726562,0.01475396379828453,-0.0009685850818641484,0.01564987748861313
495,344,-0.0400918647646904,-0.1395140141248703,-999.9990844726562,0.01475396379828453,-0.0009685850818641484,0.01564987748861313
504,344,-0.0400918647646904,-0.1395140141248703,-999.9990844726562,0.01475396379828453,-0.0009685850818641484,0.01564987748861313
509,344,-0.0400918647646904,-0.1395140141248703,-999.9990844726562,0.01475396379828453,-0.0009685850818641484,0.01564987748861313
455,344,-0.0400918647646904,-0.1395140141248703,-999.9990844726562,0.01475396379828453,-0.0009685850818641484,0.01564987748861313
426,344,-0.0400918647646904,-0.1395140141248703,-999.9990844726562,0.01475396379828453,-0.0009685850818641484,0.01564987748861313
435,344,-0.0400918647646904,-0.1395140141248703,-999.9990844726562,0.01475396379828453,-0.0009685850818641484,0.01564987748861313
440,344,-0.0400918647646904,-0.1395140141248703,-999.9990844726562,0.01475396379828453,-0.0009685850818641484,0.01564987748861313
505,345,-0.00975392572581768,0.0011856334749609232,-1000.0029907226562,0.016322197392582893,-0.007918331772089005,-0.0009757618536241353
525,345,-0.00975392572581768,0.0011856334749609232,-1000.0029907226562,0.016322197392582893,-0.007918331772089005,-0.0009757618536241353
508,345,-0.00975392572581768,0.0011856334749609232,-1000.0029907226562,0.016322197392582893,-0.007918331772089005,-0.0009757618536241353
498,345,-0.00975392572581768,0.0011856334749609232,-1000.0029907226562,0.016322197392582893,-0.007918331772089005,-0.0009757618536241353
436,345,-0.00975392572581768,0.0011856334749609232,-1000.0029907226562,0.016322197392582893,-0.007918331772089005,-0.0009757618536241353
456,345,-0.00975392572581768,0.0011856334749609232,-1000.0029907226562,0.016322197392582893,-0.007918331772089005,-0.0009757618536241353
439,345,-0.00975392572581768,0.0011856334749609232,-1000.0029907226562,0.016322197392582893,-0.007918331772089005,-0.0009757618536241353
429,345,-0.00975392572581768,0.0011856334749609232,-1000.0029907226562,0.016322197392582893,-0.007918331772089005,-0.0009757618536241353
496,346,-0.04276576638221741,-0.13489052653312683,-1000.00439453125,0.037013888359069824,-0.010443164967000484,0.009844200685620308
507,346,-0.04276576638221741,-0.13489052653312683,-1000.00439453125,0.037013888359069824,-0.010443164967000484,0.009844200685620308
506,346,-0.04276576638221741,-0.13489052653312683,-1000.00439453125,0.037013888359069824,-0.010443164967000484,0.009844200685620308
497,346,-0.04276576638221741,-0.13489052653312683,-1000.00439453125,0.037013888359069824,-0.010443164967000484,0.009844200685620308
427,346,-0.04276576638221741,-0.13489052653312683,-1000.00439453125,0.037013888359069824,-0.010443164967000484,0.009844200685620308
438,346,-0.04276576638221741,-0.13489052653312683,-1000.00439453125,0.037013888359069824,-0.010443164967000484,0.009844200685620308
437,346,-0.04276576638221741,-0.13489052653312683,-1000.00439453125,0.037013888359069824,-0.010443164967000484,0.009844200685620308
428,346,-0.04276576638221741,-0.13489052653312683,-1000.00439453125,0.037013888359069824,-0.010443164967000484,0.009844200685620308
535,347,-0.033932723104953766,-0.020175158977508545,-1000.0037231445312,-0.019283829256892204,-0.003932288382202387,0.02642706409096718
548,347,-0.033932723104953766,-0.020175158977508545,-1000.0037231445312,-0.019283829256892204,-0.003932288382202387,0.02642706409096718
527,347,-0.033932723104953766,-0.020175158977508545,-1000.0037231445312,-0.019283829256892204,-0.003932288382202387,0.02642706409096718
538,347,-0.033932723104953766,-0.020175158977508545,-1000.0037231445312,-0.019283829256892204,-0.003932288382202387,0.02642706409096718
466,347,-0.033932723104953766,-0.020175158977508545,-1000.0037231445312,-0.019283829256892204,-0.003932288382202387,0.02642706409096718
479,347,-0.033932723104953766,-0.020175158977508545,-1000.0037231445312,-0.019283829256892204,-0.003932288382202387,0.02642706409096718
458,347,-0.033932723104953766,-0.020175158977508545,-1000.0037231445312,-0.019283829256892204,-0.003932288382202387,0.02642706409096718
469,347,-0.033932723104953766,-0.020175158977508545,-1000.0037231445312,-0.019283829256892204,-0.003932288382202387,0.02642706409096718
551,348,0.16328242421150208,0.18702691793441772,-999.9772338867188,0.011781810782849789,0.012002424336969852,-0.005187499336898327
529,348,0.16328242421150208,0.18702691793441772,-999.9772338867188,0.011781810782849789,0.012002424336969852,-0.005187499336898327
515,348,0.16328242421150208,0.18702691793441772,-999.9772338867188,0.011781810782849789,0.012002424336969852,-0.005187499336898327
516,348,0.16328242421150208,0.18702691793441772,-999.9772338867188,0.011781810782849789,0.012002424336969852,-0.005187499336898327
482,348,0.16328242421150208,0.18702691793441772,-999.9772338867188,0.011781810782849789,0.012002424336969852,-0.005187499336898327
460,348,0.16328242421150208,0.18702691793441772,-999.9772338867188,0.011781810782849789,0.012002424336969852,-0.005187499336898327
446,348,0.16328242421150208,0.18702691793441772,-999.9772338867188,0.011781810782849789,0.012002424336969852,-0.005187499336898327
447,348,0.16328242421150208,0.18702691793441772,-999.9772338867188,0.011781810782849789,0.012002424336969852,-0.005187499336898327
539,349,0.061002861708402634,0.09711971133947372,-999.9902954101562,-0.02145029976963997,-0.026841558516025543,-0.02990618906915188
536,349,0.061002861708402634,0.09711971133947372,-999.9902954101562,-0.02145029976963997,-0.026841558516025543,-0.02990618906915188
535,349,0.061002861708402634,0.09711971133947372,-999.9902954101562,-0.02145029976963997,-0.026841558516025543,-0.02990618906915188
538,349,0.061002861708402634,0.09711971133947372,-999.9902954101562,-0.02145029976963997,-0.026841558516025543,-0.02990618906915188
470,349,0.061002861708402634,0.09711971133947372,-999.9902954101562,-0.02145029976963997,-0.026841558516025543,-0.02990618906915188
467,349,0.061002861708402634,0.09711971133947372,-999.9902954101562,-0.02145029976963997,-0.026841558516025543,-0.02990618906915188
466,349,0.061002861708402634,0.09711971133947372,-999.9902954101562,-0.02145029976963997,-0.026841558516025543,-0.02990618906915188
469,349,0.061002861708402634,0.09711971133947372,-999.9902954101562,-0.02145029976963997,-0.026841558516025543,-0.02990618906915188
530,350,-0.10879891365766525,-0.18384894728660583,-1000.0148315429688,-0.027035702019929886,0.038202621042728424,0.024098137393593788
547,350,-0.10879891365766525,-0.18384894728660583,-1000.0148315429688,-0.027035702019929886,0.038202621042728424,0.024098137393593788
535,350,-0.10879891365766525,-0.18384894728660583,-1000.0148315429688,-0.027035702019929886,0.038202621042728424,0.024098137393593788
536,350,-0.10879891365766525,-0.18384894728660583,-1000.0148315429688,-0.027035702019929886,0.038202621042728424,0.024098137393593788
461,350,-0.10879891365766525,-0.18384894728660583,-1000.0148315429688,-0.027035702019929886,0.038202621042728424,0.024098137393593788
478,350,-0.10879891365766525,-0.18384894728660583,-1000.0148315429688,-0.027035702019929886,0.038202621042728424,0.024098137393593788
466,350,-0.10879891365766525,-0.18384894728660583,-1000.0148315429688,-0.027035702019929886,0.038202621042728424,0.024098137393593788
467,350,-0.10879891365766525,-0.18384894728660583,-1000.0148315429688,-0.027035702019929886,0.038202621042728424,0.024098137393593788
510,351,0.0309052262455225,0.06103374436497688,-1000.0035400390625,0.016322417184710503,0.012855448760092258,-0.021360130980610847
523,351,0.0309052262455225,0.06103374436497688,-1000.0035400390625,0.016322417184710503,0.012855448760092258,-0.021360130980610847
548,351,0.0309052262455225,0.06103374436497688,-1000.0035400390625,0.016322417184710503,0.012855448760092258,-0.021360130980610847
535,351,0.0309052262455225,0.06103374436497688,-1000.0035400390625,0.016322417184710503,0.012855448760092258,-0.021360130980610847
441,351,0.0309052262455225,0.06103374436497688,-1000.0035400390625,0.016322417184710503,0.012855448760092258,-0.021360130980610847
454,351,0.0309052262455225,0.06103374436497688,-1000.0035400390625,0.016322417184710503,0.012855448760092258,-0.021360130980610847
479,351,0.0309052262455225,0.06103374436497688,-1000.0035400390625,0.016322417184710503,0.012855448760092258,-0.021360130980610847
466,351,0.0309052262455225,0.06103374436497688,-1000.0035400390625,0.016322417184710503,0.012855448760092258,-0.021360130980610847
550,352,0.23248633742332458,0.12562014162540436,-999.966552734375,0.05647631362080574,0.051097940653562546,0.0465659461915493
534,352,0.23248633742332458,0.12562014162540436,-999.966552734375,0.05647631362080574,0.051097940653562546,0.0465659461915493
514,352,0.23248633742332458,0.12562014162540436,-999.966552734375,0.05647631362080574,0.051097940653562546,0.0465659461915493
522,352,0.23248633742332458,0.12562014162540436,-999.966552734375,0.05647631362080574,0.051097940653562546,0.0465659461915493
481,352,0.23248633742332458,0.12562014162540436,-999.966552734375,0.05647631362080574,0.051097940653562546,0.0465659461915493
465,352,0.23248633742332458,0.12562014162540436,-999.966552734375,0.05647631362080574,0.051097940653562546,0.0465659461915493
445,352,0.23248633742332458,0.12562014162540436,-999.966552734375,0.05647631362080574,0.051097940653562546,0.0465659461915493
453,352,0.23248633742332458,0.12562014162540436,-999.966552734375,0.05647631362080574,0.051097940653562546,0.0465659461915493
544,353,-0.05567844584584236,-0.09998820722103119,-1000.0223999023438,-0.028704015538096428,-0.06055483967065811,0.028521163389086723
539,353,-0.05567844584584236,-0.09998820722103119,-1000.0223999023438,-0.028704015538096428,-0.06055483967065811,0.028521163389086723
518,353,-0.05567844584584236,-0.09998820722103119,-1000.0223999023438,-0.028704015538096428,-0.06055483967065811,0.028521163389086723
532,353,-0.05567844584584236,-0.09998820722103119,-1000.0223999023438,-0.028704015538096428,-0.06055483967065811,0.028521163389086723
475,353,-0.05567844584584236,-0.09998820722103119,-1000.0223999023438,-0.028704015538096428,-0.06055483967065811,0.028521163389086723
470,353,-0.05567844584584236,-0.09998820722103119,-1000.0223999023438,-0.028704015538096428,-0.06055483967065811,0.028521163389086723
449,353,-0.05567844584584236,-0.09998820722103119,-1000.0223999023438,-0.028704015538096428,-0.06055483967065811,0.028521163389086723
463,353,-0.05567844584584236,-0.09998820722103119,-1000.0223999023438,-0.028704015538096428,-0.06055483967065811,0.028521163389086723
518,354,0.11977104842662811,0.07361994683742523,-1000.0018310546875,0.07282907515764236,0.0011801514774560928,0.028935225680470467
533,354,0.11977104842662811,0.07361994683742523,-1000.0018310546875,0.07282907515764236,0.0011801514774560928,0.028935225680470467
541,354,0.11977104842662811,0.07361994683742523,-1000.0018310546875,0.07282907515764236,0.0011801514774560928,0.028935225680470467
542,354,0.11977104842662811,0.07361994683742523,-1000.0018310546875,0.07282907515764236,0.0011801514774560928,0.028935225680470467
449,354,0.11977104842662811,0.07361994683742523,-1000.0018310546875,0.07282907515764236,0.0011801514774560928,0.028935225680470467
464,354,0.11977104842662811,0.07361994683742523,-1000.0018310546875,0.07282907515764236,0.0011801514774560928,0.028935225680470467
472,354,0.11977104842662811,0.07361994683742523,-1000.0018310546875,0.07282907515764236,0.0011801514774560928,0.028935225680470467
473,354,0.11977104842662811,0.07361994683742523,-1000.0018310546875,0.07282907515764236,0.0011801514774560928,0.028935225680470467
525,355,-4.445414106157841e-06,-0.03967425227165222,-1000.0478515625,-0.10501085221767426,0.01285106223076582,-0.038693126291036606
506,355,-4.445414106157841e-06,-0.03967425227165222,-1000.0478515625,-0.10501085221767426,0.01285106223076582,-0.038693126291036606
545,355,-4.445414106157841e-06,-0.03967425227165222,-1000.0478515625,-0.10501085221767426,0.01285106223076582,-0.038693126291036606
528,355,-4.445414106157841e-06,-0.03967425227165222,-1000.0478515625,-0.10501085221767426,0.01285106223076582,-0.038693126291036606
456,355,-4.445414106157841e-06,-0.03967425227165222,-1000.0478515625,-0.10501085221767426,0.01285106223076582,-0.038693126291036606
437,355,-4.445414106157841e-06,-0.03967425227165222,-1000.0478515625,-0.10501085221767426,0.01285106223076582,-0.038693126291036606
476,355,-4.445414106157841e-06,-0.03967425227165222,-1000.0478515625,-0.10501085221767426,0.01285106223076582,-0.038693126291036606
459,355,-4.445414106157841e-06,-0.03967425227165222,-1000.0478515625,-0.10501085221767426,0.01285106223076582,-0.038693126291036606
552,356,0.0779799297451973,0.17650850117206573,-999.9588623046875,-0.006113315932452679,0.011655662208795547,0.03275325521826744
508,356,0.0779799297451973,0.17650850117206573,-999.9588623046875,-0.006113315932452679,0.011655662208795547,0.03275325521826744
525,356,0.0779799297451973,0.17650850117206573,-999.9588623046875,-0.006113315932452679,0.011655662208795547,0.03275325521826744
528,356,0.0779799297451973,0.17650850117206573,-999.9588623046875,-0.006113315932452679,0.011655662208795547,0.03275325521826744
483,356,0.0779799297451973,0.17650850117206573,-999.9588623046875,-0.006113315932452679,0.011655662208795547,0.03275325521826744
439,356,0.0779799297451973,0.17650850117206573,-999.9588623046875,-0.006113315932452679,0.011655662208795547,0.03275325521826744
456,356,0.0779799297451973,0.17650850117206573,-999.9588623046875,-0.006113315932452679,0.011655662208795547,0.03275325521826744
459,356,0.0779799297451973,0.17650850117206573,-999.9588623046875,-0.006113315932452679,0.011655662208795547,0.03275325521826744
512,357,0.10621878504753113,0.09260855615139008,-999.9796142578125,0.01370288897305727,0.021134067326784134,-0.014380077831447124
513,357,0.10621878504753113,0.09260855615139008,-999.9796142578125,0.01370288897305727,0.021134067326784134,-0.014380077831447124
549,357,0.10621878504753113,0.09260855615139008,-999.9796142578125,0.01370288897305727,0.021134067326784134,-0.014380077831447124
527,357,0.10621878504753113,0.09260855615139008,-999.9796142578125,0.01370288897305727,0.021134067326784134,-0.014380077831447124
443,357,0.10621878504753113,0.09260855615139008,-999.9796142578125,0.01370288897305727,0.021134067326784134,-0.014380077831447124
444,357,0.10621878504753113,0.09260855615139008,-999.9796142578125,0.01370288897305727,0.021134067326784134,-0.014380077831447124
480,357,0.10621878504753113,0.09260855615139008,-999.9796142578125,0.01370288897305727,0.021134067326784134,-0.014380077831447124
458,357,0.10621878504753113,0.09260855615139008,-999.9796142578125,0.01370288897305727,0.021134067326784134,-0.014380077831447124
497,358,-0.06082352250814438,-0.13420115411281586,-999.998291015625,0.05077699199318886,-0.0022823363542556763,-0.0032622143626213074
506,358,-0.06082352250814438,-0.13420115411281586,-999.998291015625,0.05077699199318886,-0.0022823363542556763,-0.0032622143626213074
525,358,-0.06082352250814438,-0.13420115411281586,-999.998291015625,0.05077699199318886,-0.0022823363542556763,-0.0032622143626213074
505,358,-0.06082352250814438,-0.13420115411281586,-999.998291015625,0.05077699199318886,-0.0022823363542556763,-0.0032622143626213074
428,358,-0.06082352250814438,-0.13420115411281586,-999.998291015625,0.05077699199318886,-0.0022823363542556763,-0.0032622143626213074
437,358,-0.06082352250814438,-0.13420115411281586,-999.998291015625,0.05077699199318886,-0.0022823363542556763,-0.0032622143626213074
456,358,-0.06082352250814438,-0.13420115411281586,-999.998291015625,0.05077699199318886,-0.0022823363542556763,-0.0032622143626213074
436,358,-0.06082352250814438,-0.13420115411281586,-999.998291015625,0.05077699199318886,-0.0022823363542556763,-0.0032622143626213074
494,359,-0.057162847369909286,-0.1701308637857437,-1000.0048217773438,-0.025496603921055794,0.0062548136338591576,0.002751533640548587
540,359,-0.057162847369909286,-0.1701308637857437,-1000.0048217773438,-0.025496603921055794,0.0062548136338591576,0.002751533640548587
509,359,-0.057162847369909286,-0.1701308637857437,-1000.0048217773438,-0.025496603921055794,0.0062548136338591576,0.002751533640548587
504,359,-0.057162847369909286,-0.1701308637857437,-1000.0048217773438,-0.025496603921055794,0.0062548136338591576,0.002751533640548587
425,359,-0.057162847369909286,-0.1701308637857437,-1000.0048217773438,-0.025496603921055794,0.0062548136338591576,0.002751533640548587
471,359,-0.057162847369909286,-0.1701308637857437,-1000.0048217773438,-0.025496603921055794,0.0062548136338591576,0.002751533640548587
440,359,-0.057162847369909286,-0.1701308637857437,-1000.0048217773438,-0.025496603921055794,0.0062548136338591576,0.002751533640548587
435,359,-0.057162847369909286,-0.1701308637857437,-1000.0048217773438,-0.025496603921055794,0.0062548136338591576,0.002751533640548587
510,360,-0.053406842052936554,-0.0006277515785768628,-1000.0029296875,-0.017634157091379166,0.0009252641466446221,0.0033889859914779663
493,360,-0.053406842052936554,-0.0006277515785768628,-1000.0029296875,-0.017634157091379166,0.0009252641466446221,0.0033889859914779663
503,360,-0.053406842052936554,-0.0006277515785768628,-1000.0029296875,-0.017634157091379166,0.0009252641466446221,0.0033889859914779663
523,360,-0.053406842052936554,-0.0006277515785768628,-1000.0029296875,-0.017634157091379166,0.0009252641466446221,0.0033889859914779663
441,360,-0.053406842052936554,-0.0006277515785768628,-1000.0029296875,-0.017634157091379166,0.0009252641466446221,0.0033889859914779663
424,360,-0.053406842052936554,-0.0006277515785768628,-1000.0029296875,-0.017634157091379166,0.0009252641466446221,0.0033889859914779663
434,360,-0.053406842052936554,-0.0006277515785768628,-1000.0029296875,-0.017634157091379166,0.0009252641466446221,0.0033889859914779663
454,360,-0.053406842052936554,-0.0006277515785768628,-1000.0029296875,-0.017634157091379166,0.0009252641466446221,0.0033889859914779663
511,361,-0.023991312831640244,-0.017537642270326614,-999.995361328125,-0.006924805697053671,-0.0003681349626276642,0.0015957914292812347
499,361,-0.023991312831640244,-0.017537642270326614,-999.995361328125,-0.006924805697053671,-0.0003681349626276642,0.0015957914292812347
498,361,-0.023991312831640244,-0.017537642270326614,-999.995361328125,-0.006924805697053671,-0.0003681349626276642,0.0015957914292812347
508,361,-0.023991312831640244,-0.017537642270326614,-999.995361328125,-0.006924805697053671,-0.0003681349626276642,0.0015957914292812347
442,361,-0.023991312831640244,-0.017537642270326614,-999.995361328125,-0.006924805697053671,-0.0003681349626276642,0.0015957914292812347
430,361,-0.023991312831640244,-0.017537642270326614,-999.995361328125,-0.006924805697053671,-0.0003681349626276642,0.0015957914292812347
429,361,-0.023991312831640244,-0.017537642270326614,-999.995361328125,-0.006924805697053671,-0.0003681349626276642,0.0015957914292812347
439,361,-0.023991312831640244,-0.017537642270326614,-999.995361328125,-0.006924805697053671,-0.0003681349626276642,0.0015957914292812347
523,362,-0.026646487414836884,-0.00628986582159996,-999.995849609375,0.004747085273265839,8.95560733624734e-05,-0.0012089721858501434
503,362,-0.026646487414836884,-0.00628986582159996,-999.995849609375,0.004747085273265839,8.95560733624734e-05,-0.0012089721858501434
492,362,-0.026646487414836884,-0.00628986582159996,-999.995849609375,0.004747085273265839,8.95560733624734e-05,-0.0012089721858501434
512,362,-0.026646487414836884,-0.00628986582159996,-999.995849609375,0.004747085273265839,8.95560733624734e-05,-0.0012089721858501434
454,362,-0.026646487414836884,-0.00628986582159996,-999.995849609375,0.004747085273265839,8.95560733624734e-05,-0.0012089721858501434
434,362,-0.026646487414836884,-0.00628986582159996,-999.995849609375,0.004747085273265839,8.95560733624734e-05,-0.0012089721858501434
423,362,-0.026646487414836884,-0.00628986582159996,-999.995849609375,0.004747085273265839,8.95560733624734e-05,-0.0012089721858501434
443,362,-0.026646487414836884,-0.00628986582159996,-999.995849609375,0.004747085273265839,8.95560733624734e-05,-0.0012089721858501434
547,363,0.07497940957546234,0.055155858397483826,-999.9860229492188,0.06846635043621063,-0.004832110367715359,0.007693452760577202
540,363,0.07497940957546234,0.055155858397483826,-999.9860229492188,0.06846635043621063,-0.004832110367715359,0.007693452760577202
510,363,0.07497940957546234,0.055155858397483826,-999.9860229492188,0.06846635043621063,-0.004832110367715359,0.007693452760577202
535,363,0.07497940957546234,0.055155858397483826,-999.9860229492188,0.06846635043621063,-0.004832110367715359,0.007693452760577202
478,363,0.07497940957546234,0.055155858397483826,-999.9860229492188,0.06846635043621063,-0.004832110367715359,0.007693452760577202
471,363,0.07497940957546234,0.055155858397483826,-999.9860229492188,0.06846635043621063,-0.004832110367715359,0.007693452760577202
441,363,0.07497940957546234,0.055155858397483826,-999.9860229492188,0.06846635043621063,-0.004832110367715359,0.007693452760577202
466,363,0.07497940957546234,0.055155858397483826,-999.9860229492188,0.06846635043621063,-0.004832110367715359,0.007693452760577202
512,364,-0.0600263848900795,0.005304932594299316,-1000.0057373046875,0.015791257843375206,0.004678906407207251,0.00770053593441844
492,364,-0.0600263848900795,0.005304932594299316,-1000.0057373046875,0.015791257843375206,0.004678906407207251,0.00770053593441844
491,364,-0.0600263848900795,0.005304932594299316,-1000.0057373046875,0.015791257843375206,0.004678906407207251,0.00770053593441844
513,364,-0.0600263848900795,0.005304932594299316,-1000.0057373046875,0.015791257843375206,0.004678906407207251,0.00770053593441844
443,364,-0.0600263848900795,0.005304932594299316,-1000.0057373046875,0.015791257843375206,0.004678906407207251,0.00770053593441844
423,364,-0.0600263848900795,0.005304932594299316,-1000.0057373046875,0.015791257843375206,0.004678906407207251,0.00770053593441844
422,364,-0.0600263848900795,0.005304932594299316,-1000.0057373046875,0.015791257843375206,0.004678906407207251,0.00770053593441844
444,364,-0.0600263848900795,0.005304932594299316,-1000.0057373046875,0.015791257843375206,0.004678906407207251,0.00770053593441844
513,365,-0.10892365127801895,-0.045193374156951904,-999.9932250976562,-0.013091860339045525,0.00461462652310729,-0.00527862599119544
491,365,-0.10892365127801895,-0.045193374156951904,-999.9932250976562,-0.013091860339045525,0.00461462652310729,-0.00527862599119544
490,365,-0.10892365127801895,-0.045193374156951904,-999.9932250976562,-0.013091860339045525,0.00461462652310729,-0.00527862599119544
514,365,-0.10892365127801895,-0.045193374156951904,-999.9932250976562,-0.013091860339045525,0.00461462652310729,-0.00527862599119544
444,365,-0.10892365127801895,-0.045193374156951904,-999.9932250976562,-0.013091860339045525,0.00461462652310729,-0.00527862599119544
422,365,-0.10892365127801895,-0.045193374156951904,-999.9932250976562,-0.013091860339045525,0.00461462652310729,-0.00527862599119544
421,365,-0.10892365127801895,-0.045193374156951904,-999.9932250976562,-0.013091860339045525,0.00461462652310729,-0.00527862599119544
445,365,-0.10892365127801895,-0.045193374156951904,-999.9932250976562,-0.013091860339045525,0.00461462652310729,-0.00527862599119544
544,366,0.024580268189311028,-0.08558852970600128,-999.9837646484375,-0.01568244770169258,-0.005057109985500574,-0.04172828793525696
532,366,0.024580268189311028,-0.08558852970600128,-999.9837646484375,-0.01568244770169258,-0.005057109985500574,-0.04172828793525696
543,366,0.024580268189311028,-0.08558852970600128,-999.9837646484375,-0.01568244770169258,-0.005057109985500574,-0.04172828793525696
537,366,0.024580268189311028,-0.08558852970600128,-999.9837646484375,-0.01568244770169258,-0.005057109985500574,-0.04172828793525696
475,366,0.024580268189311028,-0.08558852970600128,-999.9837646484375,-0.01568244770169258,-0.005057109985500574,-0.04172828793525696
463,366,0.024580268189311028,-0.08558852970600128,-999.9837646484375,-0.01568244770169258,-0.005057109985500574,-0.04172828793525696
474,366,0.024580268189311028,-0.08558852970600128,-999.9837646484375,-0.01568244770169258,-0.005057109985500574,-0.04172828793525696
468,366,0.024580268189311028,-0.08558852970600128,-999.9837646484375,-0.01568244770169258,-0.005057109985500574,-0.04172828793525696
499,367,-0.03477654606103897,-0.00741804763674736,-1000.004638671875,-0.03834579885005951,-0.0011259336024522781,0.0051431478932499886
511,367,-0.03477654606103897,-0.00741804763674736,-1000.004638671875,-0.03834579885005951,-0.0011259336024522781,0.0051431478932499886
519,367,-0.03477654606103897,-0.00741804763674736,-1000.004638671875,-0.03834579885005951,-0.0011259336024522781,0.0051431478932499886
484,367,-0.03477654606103897,-0.00741804763674736,-1000.004638671875,-0.03834579885005951,-0.0011259336024522781,0.0051431478932499886
430,367,-0.03477654606103897,-0.00741804763674736,-1000.004638671875,-0.03834579885005951,-0.0011259336024522781,0.0051431478932499886
442,367,-0.03477654606103897,-0.00741804763674736,-1000.004638671875,-0.03834579885005951,-0.0011259336024522781,0.0051431478932499886
450,367,-0.03477654606103897,-0.00741804763674736,-1000.004638671875,-0.03834579885005951,-0.0011259336024522781,0.0051431478932499886
415,367,-0.03477654606103897,-0.00741804763674736,-1000.004638671875,-0.03834579885005951,-0.0011259336024522781,0.0051431478932499886
514,368,-0.0696864128112793,0.01221947930753231,-1000.0084838867188,0.005251861177384853,-0.0026080601383000612,-0.005048033315688372
490,368,-0.0696864128112793,0.01221947930753231,-1000.0084838867188,0.005251861177384853,-0.0026080601383000612,-0.005048033315688372
502,368,-0.0696864128112793,0.01221947930753231,-1000.0084838867188,0.005251861177384853,-0.0026080601383000612,-0.005048033315688372
522,368,-0.0696864128112793,0.01221947930753231,-1000.0084838867188,0.005251861177384853,-0.0026080601383000612,-0.005048033315688372
445,368,-0.0696864128112793,0.01221947930753231,-1000.0084838867188,0.005251861177384853,-0.0026080601383000612,-0.005048033315688372
421,368,-0.0696864128112793,0.01221947930753231,-1000.0084838867188,0.005251861177384853,-0.0026080601383000612,-0.005048033315688372
433,368,-0.0696864128112793,0.01221947930753231,-1000.0084838867188,0.005251861177384853,-0.0026080601383000612,-0.005048033315688372
453,368,-0.0696864128112793,0.01221947930753231,-1000.0084838867188,0.005251861177384853,-0.0026080601383000612,-0.005048033315688372
522,369,-0.08360574394464493,-0.0588790699839592,-999.9921875,0.02926647663116455,0.007690425496548414,-0.0023207853082567453
502,369,-0.08360574394464493,-0.0588790699839592,-999.9921875,0.02926647663116455,0.007690425496548414,-0.0023207853082567453
489,369,-0.08360574394464493,-0.0588790699839592,-999.9921875,0.02926647663116455,0.007690425496548414,-0.0023207853082567453
515,369,-0.08360574394464493,-0.0588790699839592,-999.9921875,0.02926647663116455,0.007690425496548414,-0.0023207853082567453
453,369,-0.08360574394464493,-0.0588790699839592,-999.9921875,0.02926647663116455,0.007690425496548414,-0.0023207853082567453
433,369,-0.08360574394464493,-0.0588790699839592,-999.9921875,0.02926647663116455,0.007690425496548414,-0.0023207853082567453
420,369,-0.08360574394464493,-0.0588790699839592,-999.9921875,0.02926647663116455,0.007690425496548414,-0.0023207853082567453
446,369,-0.08360574394464493,-0.0588790699839592,-999.9921875,0.02926647663116455,0.007690425496548414,-0.0023207853082567453
515,370,-0.04266330972313881,-0.09085967391729355,-1000.0086059570312,0.035957563668489456,-0.003784266533330083,0.003862672485411167
489,370,-0.04266330972313881,-0.09085967391729355,-1000.0086059570312,0.035957563668489456,-0.003784266533330083,0.003862672485411167
488,370,-0.04266330972313881,-0.09085967391729355,-1000.0086059570312,0.035957563668489456,-0.003784266533330083,0.003862672485411167
516,370,-0.04266330972313881,-0.09085967391729355,-1000.0086059570312,0.035957563668489456,-0.003784266533330083,0.003862672485411167
446,370,-0.04266330972313881,-0.09085967391729355,-1000.0086059570312,0.035957563668489456,-0.003784266533330083,0.003862672485411167
420,370,-0.04266330972313881,-0.09085967391729355,-1000.0086059570312,0.035957563668489456,-0.003784266533330083,0.003862672485411167
419,370,-0.04266330972313881,-0.09085967391729355,-1000.0086059570312,0.035957563668489456,-0.003784266533330083,0.003862672485411167
447,370,-0.04266330972313881,-0.09085967391729355,-1000.0086059570312,0.035957563668489456,-0.003784266533330083,0.003862672485411167
516,371,-0.010116860270500183,-0.0535493828356266,-999.9930419921875,-0.0036035580560564995,0.009752455167472363,-0.005526571534574032
488,371,-0.010116860270500183,-0.0535493828356266,-999.9930419921875,-0.0036035580560564995,0.009752455167472363,-0.005526571534574032
501,371,-0.010116860270500183,-0.0535493828356266,-999.9930419921875,-0.0036035580560564995,0.009752455167472363,-0.005526571534574032
521,371,-0.010116860270500183,-0.0535493828356266,-999.9930419921875,-0.0036035580560564995,0.009752455167472363,-0.005526571534574032
447,371,-0.010116860270500183,-0.0535493828356266,-999.9930419921875,-0.0036035580560564995,0.009752455167472363,-0.005526571534574032
419,371,-0.010116860270500183,-0.0535493828356266,-999.9930419921875,-0.0036035580560564995,0.009752455167472363,-0.005526571534574032
432,371,-0.010116860270500183,-0.0535493828356266,-999.9930419921875,-0.0036035580560564995,0.009752455167472363,-0.005526571534574032
452,371,-0.010116860270500183,-0.0535493828356266,-999.9930419921875,-0.0036035580560564995,0.009752455167472363,-0.005526571534574032
521,372,-0.008461030200123787,-0.042819131165742874,-1000.0052490234375,-0.010902740992605686,-0.015551907010376453,0.002004914218559861
501,372,-0.008461030200123787,-0.042819131165742874,-1000.0052490234375,-0.010902740992605686,-0.015551907010376453,0.002004914218559861
487,372,-0.008461030200123787,-0.042819131165742874,-1000.0052490234375,-0.010902740992605686,-0.015551907010376453,0.002004914218559861
517,372,-0.008461030200123787,-0.042819131165742874,-1000.0052490234375,-0.010902740992605686,-0.015551907010376453,0.002004914218559861
452,372,-0.008461030200123787,-0.042819131165742874,-1000.0052490234375,-0.010902740992605686,-0.015551907010376453,0.002004914218559861
432,372,-0.008461030200123787,-0.042819131165742874,-1000.0052490234375,-0.010902740992605686,-0.015551907010376453,0.002004914218559861
418,372,-0.008461030200123787,-0.042819131165742874,-1000.0052490234375,-0.010902740992605686,-0.015551907010376453,0.002004914218559861
448,372,-0.008461030200123787,-0.042819131165742874,-1000.0052490234375,-0.010902740992605686,-0.015551907010376453,0.002004914218559861
541,373,-0.1360996663570404,-0.1455506831407547,-1000.0026245117188,-0.05741940066218376,-0.009450459852814674,-0.007665344979614019
486,373,-0.1360996663570404,-0.1455506831407547,-1000.0026245117188,-0.05741940066218376,-0.009450459852814674,-0.007665344979614019
485,373,-0.1360996663570404,-0.1455506831407547,-1000.0026245117188,-0.05741940066218376,-0.009450459852814674,-0.007665344979614019
542,373,-0.1360996663570404,-0.1455506831407547,-1000.0026245117188,-0.05741940066218376,-0.009450459852814674,-0.007665344979614019
472,373,-0.1360996663570404,-0.1455506831407547,-1000.0026245117188,-0.05741940066218376,-0.009450459852814674,-0.007665344979614019
417,373,-0.1360996663570404,-0.1455506831407547,-1000.0026245117188,-0.05741940066218376,-0.009450459852814674,-0.007665344979614019
416,373,-0.1360996663570404,-0.1455506831407547,-1000.0026245117188,-0.05741940066218376,-0.009450459852814674,-0.007665344979614019
473,373,-0.1360996663570404,-0.1455506831407547,-1000.0026245117188,-0.05741940066218376,-0.009450459852814674,-0.007665344979614019
520,374,-0.002838550601154566,-0.03990557789802551,-999.9969482421875,-0.008832840248942375,-0.003270434681326151,-0.0002190777740906924
500,374,-0.002838550601154566,-0.03990557789802551,-999.9969482421875,-0.008832840248942375,-0.003270434681326151,-0.0002190777740906924
484,374,-0.002838550601154566,-0.03990557789802551,-999.9969482421875,-0.008832840248942375,-0.003270434681326151,-0.0002190777740906924
519,374,-0.002838550601154566,-0.03990557789802551,-999.9969482421875,-0.008832840248942375,-0.003270434681326151,-0.0002190777740906924
451,374,-0.002838550601154566,-0.03990557789802551,-999.9969482421875,-0.008832840248942375,-0.003270434681326151,-0.0002190777740906924
431,374,-0.002838550601154566,-0.03990557789802551,-999.9969482421875,-0.008832840248942375,-0.003270434681326151,-0.0002190777740906924
415,374,-0.002838550601154566,-0.03990557789802551,-999.9969482421875,-0.008832840248942375,-0.003270434681326151,-0.0002190777740906924
450,374,-0.002838550601154566,-0.03990557789802551,-999.9969482421875,-0.008832840248942375,-0.003270434681326151,-0.0002190777740906924
543,375,0.14200937747955322,0.22204764187335968,-999.9560546875,0.03770073503255844,-0.014509795233607292,-0.026469619944691658
519,375,0.14200937747955322,0.22204764187335968,-999.9560546875,0.03770073503255844,-0.014509795233607292,-0.026469619944691658
511,375,0.14200937747955322,0.22204764187335968,-999.9560546875,0.03770073503255844,-0.014509795233607292,-0.026469619944691658
526,375,0.14200937747955322,0.22204764187335968,-999.9560546875,0.03770073503255844,-0.014509795233607292,-0.026469619944691658
474,375,0.14200937747955322,0.22204764187335968,-999.9560546875,0.03770073503255844,-0.014509795233607292,-0.026469619944691658
450,375,0.14200937747955322,0.22204764187335968,-999.9560546875,0.03770073503255844,-0.014509795233607292,-0.026469619944691658
442,375,0.14200937747955322,0.22204764187335968,-999.9560546875,0.03770073503255844,-0.014509795233607292,-0.026469619944691658
457,375,0.14200937747955322,0.22204764187335968,-999.9560546875,0.03770073503255844,-0.014509795233607292,-0.026469619944691658
542,376,0.0702168419957161,0.16961072385311127,-999.978515625,0.022011056542396545,0.022869812324643135,-0.011902546510100365
520,376,0.0702168419957161,0.16961072385311127,-999.978515625,0.022011056542396545,0.022869812324643135,-0.011902546510100365
532,376,0.0702168419957161,0.16961072385311127,-999.978515625,0.022011056542396545,0.022869812324643135,-0.011902546510100365
518,376,0.0702168419957161,0.16961072385311127,-999.978515625,0.022011056542396545,0.022869812324643135,-0.011902546510100365
473,376,0.0702168419957161,0.16961072385311127,-999.978515625,0.022011056542396545,0.022869812324643135,-0.011902546510100365
451,376,0.0702168419957161,0.16961072385311127,-999.978515625,0.022011056542396545,0.022869812324643135,-0.011902546510100365
463,376,0.0702168419957161,0.16961072385311127,-999.978515625,0.022011056542396545,0.022869812324643135,-0.011902546510100365
449,376,0.0702168419957161,0.16961072385311127,-999.978515625,0.022011056542396545,0.022869812324643135,-0.011902546510100365
517,377,-0.07638819515705109,-0.09892988950014114,-999.9996948242188,-0.07145830988883972,0.016233960166573524,-0.009895854629576206
487,377,-0.07638819515705109,-0.09892988950014114,-999.9996948242188,-0.07145830988883972,0.016233960166573524,-0.009895854629576206
486,377,-0.07638819515705109,-0.09892988950014114,-999.9996948242188,-0.07145830988883972,0.016233960166573524,-0.009895854629576206
541,377,-0.07638819515705109,-0.09892988950014114,-999.9996948242188,-0.07145830988883972,0.016233960166573524,-0.009895854629576206
448,377,-0.07638819515705109,-0.09892988950014114,-999.9996948242188,-0.07145830988883972,0.016233960166573524,-0.009895854629576206
418,377,-0.07638819515705109,-0.09892988950014114,-999.9996948242188,-0.07145830988883972,0.016233960166573524,-0.009895854629576206
417,377,-0.07638819515705109,-0.09892988950014114,-999.9996948242188,-0.07145830988883972,0.016233960166573524,-0.009895854629576206
472,377,-0.07638819515705109,-0.09892988950014114,-999.9996948242188,-0.07145830988883972,0.016233960166573524,-0.009895854629576206
526,378,-0.03247009962797165,-0.19228380918502808,-1000.0452880859375,0.007817107252776623,0.03567573428153992,-0.02390715852379799
511,378,-0.03247009962797165,-0.19228380918502808,-1000.0452880859375,0.007817107252776623,0.03567573428153992,-0.02390715852379799
508,378,-0.03247009962797165,-0.19228380918502808,-1000.0452880859375,0.007817107252776623,0.03567573428153992,-0.02390715852379799
552,378,-0.03247009962797165,-0.19228380918502808,-1000.0452880859375,0.007817107252776623,0.03567573428153992,-0.02390715852379799
457,378,-0.03247009962797165,-0.19228380918502808,-1000.0452880859375,0.007817107252776623,0.03567573428153992,-0.02390715852379799
442,378,-0.03247009962797165,-0.19228380918502808,-1000.0452880859375,0.007817107252776623,0.03567573428153992,-0.02390715852379799
439,378,-0.03247009962797165,-0.19228380918502808,-1000.0452880859375,0.007817107252776623,0.03567573428153992,-0.02390715852379799
483,378,-0.03247009962797165,-0.19228380918502808,-1000.0452880859375,0.007817107252776623,0.03567573428153992,-0.02390715852379799
537,379,0.03188088908791542,0.07010279595851898,-999.9932861328125,0.0633285790681839,-0.008843379095196724,-0.0423659086227417
552,379,0.03188088908791542,0.07010279595851898,-999.9932861328125,0.0633285790681839,-0.008843379095196724,-0.0423659086227417
528,379,0.03188088908791542,0.07010279595851898,-999.9932861328125,0.0633285790681839,-0.008843379095196724,-0.0423659086227417
536,379,0.03188088908791542,0.07010279595851898,-999.9932861328125,0.0633285790681839,-0.008843379095196724,-0.0423659086227417
468,379,0.03188088908791542,0.07010279595851898,-999.9932861328125,0.0633285790681839,-0.008843379095196724,-0.0423659086227417
483,379,0.03188088908791542,0.07010279595851898,-999.9932861328125,0.0633285790681839,-0.008843379095196724,-0.0423659086227417
459,379,0.03188088908791542,0.07010279595851898,-999.9932861328125,0.0633285790681839,-0.008843379095196724,-0.0423659086227417
467,379,0.03188088908791542,0.07010279595851898,-999.9932861328125,0.0633285790681839,-0.008843379095196724,-0.0423659086227417
507,380,-0.021062472835183144,0.09701785445213318,-1000.046875,-0.05441446602344513,0.0033825894352048635,-0.05939611420035362
524,380,-0.021062472835183144,0.09701785445213318,-1000.046875,-0.05441446602344513,0.0033825894352048635,-0.05939611420035362
546,380,-0.021062472835183144,0.09701785445213318,-1000.046875,-0.05441446602344513,0.0033825894352048635,-0.05939611420035362
531,380,-0.021062472835183144,0.09701785445213318,-1000.046875,-0.05441446602344513,0.0033825894352048635,-0.05939611420035362
438,380,-0.021062472835183144,0.09701785445213318,-1000.046875,-0.05441446602344513,0.0033825894352048635,-0.05939611420035362
455,380,-0.021062472835183144,0.09701785445213318,-1000.046875,-0.05441446602344513,0.0033825894352048635,-0.05939611420035362
477,380,-0.021062472835183144,0.09701785445213318,-1000.046875,-0.05441446602344513,0.0033825894352048635,-0.05939611420035362
462,380,-0.021062472835183144,0.09701785445213318,-1000.046875,-0.05441446602344513,0.0033825894352048635,-0.05939611420035362
531,381,0.016382277011871338,-0.16286711394786835,-1000.004150390625,-0.011901719495654106,-0.012776528485119343,0.06413403153419495
546,381,0.016382277011871338,-0.16286711394786835,-1000.004150390625,-0.011901719495654106,-0.012776528485119343,0.06413403153419495
530,381,0.016382277011871338,-0.16286711394786835,-1000.004150390625,-0.011901719495654106,-0.012776528485119343,0.06413403153419495
536,381,0.016382277011871338,-0.16286711394786835,-1000.004150390625,-0.011901719495654106,-0.012776528485119343,0.06413403153419495
462,381,0.016382277011871338,-0.16286711394786835,-1000.004150390625,-0.011901719495654106,-0.012776528485119343,0.06413403153419495
477,381,0.016382277011871338,-0.16286711394786835,-1000.004150390625,-0.011901719495654106,-0.012776528485119343,0.06413403153419495
461,381,0.016382277011871338,-0.16286711394786835,-1000.004150390625,-0.011901719495654106,-0.012776528485119343,0.06413403153419495
467,381,0.016382277011871338,-0.16286711394786835,-1000.004150390625,-0.011901719495654106,-0.012776528485119343,0.06413403153419495
533,382,0.12634223699569702,0.13781945407390594,-999.9877319335938,0.05759631469845772,0.008428486995398998,0.010114805772900581
521,382,0.12634223699569702,0.13781945407390594,-999.9877319335938,0.05759631469845772,0.008428486995398998,0.010114805772900581
517,382,0.12634223699569702,0.13781945407390594,-999.9877319335938,0.05759631469845772,0.008428486995398998,0.010114805772900581
541,382,0.12634223699569702,0.13781945407390594,-999.9877319335938,0.05759631469845772,0.008428486995398998,0.010114805772900581
464,382,0.12634223699569702,0.13781945407390594,-999.9877319335938,0.05759631469845772,0.008428486995398998,0.010114805772900581
452,382,0.12634223699569702,0.13781945407390594,-999.9877319335938,0.05759631469845772,0.008428486995398998,0.010114805772900581
448,382,0.12634223699569702,0.13781945407390594,-999.9877319335938,0.05759631469845772,0.008428486995398998,0.010114805772900581
472,382,0.12634223699569702,0.13781945407390594,-999.9877319335938,0.05759631469845772,0.008428486995398998,0.010114805772900581
531,383,-0.09083307534456253,-0.17737777531147003,-1000.0142211914062,0.02523103728890419,-0.04812457039952278,0.004140796605497599
536,383,-0.09083307534456253,-0.17737777531147003,-1000.0142211914062,0.02523103728890419,-0.04812457039952278,0.004140796605497599
528,383,-0.09083307534456253,-0.17737777531147003,-1000.0142211914062,0.02523103728890419,-0.04812457039952278,0.004140796605497599
545,383,-0.09083307534456253,-0.17737777531147003,-1000.0142211914062,0.02523103728890419,-0.04812457039952278,0.004140796605497599
462,383,-0.09083307534456253,-0.17737777531147003,-1000.0142211914062,0.02523103728890419,-0.04812457039952278,0.004140796605497599
467,383,-0.09083307534456253,-0.17737777531147003,-1000.0142211914062,0.02523103728890419,-0.04812457039952278,0.004140796605497599
459,383,-0.09083307534456253,-0.17737777531147003,-1000.0142211914062,0.02523103728890419,-0.04812457039952278,0.004140796605497599
476,383,-0.09083307534456253,-0.17737777531147003,-1000.0142211914062,0.02523103728890419,-0.04812457039952278,0.004140796605497599
509,384,0.040020816028118134,0.23287148773670197,-1000.0125122070312,-0.011686332523822784,-0.03211314603686333,-0.03398799151182175
540,384,0.040020816028118134,0.23287148773670197,-1000.0125122070312,-0.011686332523822784,-0.03211314603686333,-0.03398799151182175
547,384,0.040020816028118134,0.23287148773670197,-1000.0125122070312,-0.011686332523822784,-0.03211314603686333,-0.03398799151182175
530,384,0.040020816028118134,0.23287148773670197,-1000.0125122070312,-0.011686332523822784,-0.03211314603686333,-0.03398799151182175
440,384,0.040020816028118134,0.23287148773670197,-1000.0125122070312,-0.011686332523822784,-0.03211314603686333,-0.03398799151182175
471,384,0.040020816028118134,0.23287148773670197,-1000.0125122070312,-0.011686332523822784,-0.03211314603686333,-0.03398799151182175
478,384,0.040020816028118134,0.23287148773670197,-1000.0125122070312,-0.011686332523822784,-0.03211314603686333,-0.03398799151182175
461,384,0.040020816028118134,0.23287148773670197,-1000.0125122070312,-0.011686332523822784,-0.03211314603686333,-0.03398799151182175
551,385,-0.11214125156402588,-0.11289750784635544,-999.9993286132812,-0.04001672938466072,0.010465702041983604,-0.04616079479455948
533,385,-0.11214125156402588,-0.11289750784635544,-999.9993286132812,-0.04001672938466072,0.010465702041983604,-0.04616079479455948
518,385,-0.11214125156402588,-0.11289750784635544,-999.9993286132812,-0.04001672938466072,0.010465702041983604,-0.04616079479455948
539,385,-0.11214125156402588,-0.11289750784635544,-999.9993286132812,-0.04001672938466072,0.010465702041983604,-0.04616079479455948
482,385,-0.11214125156402588,-0.11289750784635544,-999.9993286132812,-0.04001672938466072,0.010465702041983604,-0.04616079479455948
464,385,-0.11214125156402588,-0.11289750784635544,-999.9993286132812,-0.04001672938466072,0.010465702041983604,-0.04616079479455948
449,385,-0.11214125156402588,-0.11289750784635544,-999.9993286132812,-0.04001672938466072,0.010465702041983604,-0.04616079479455948
470,385,-0.11214125156402588,-0.11289750784635544,-999.9993286132812,-0.04001672938466072,0.010465702041983604,-0.04616079479455948
527,386,-0.1403341293334961,0.022932790219783783,-1000.0034790039062,0.0005666935467161238,0.040590450167655945,0.024636724963784218
549,386,-0.1403341293334961,0.022932790219783783,-1000.0034790039062,0.0005666935467161238,0.040590450167655945,0.024636724963784218
534,386,-0.1403341293334961,0.022932790219783783,-1000.0034790039062,0.0005666935467161238,0.040590450167655945,0.024636724963784218
538,386,-0.1403341293334961,0.022932790219783783,-1000.0034790039062,0.0005666935467161238,0.040590450167655945,0.024636724963784218
458,386,-0.1403341293334961,0.022932790219783783,-1000.0034790039062,0.0005666935467161238,0.040590450167655945,0.024636724963784218
480,386,-0.1403341293334961,0.022932790219783783,-1000.0034790039062,0.0005666935467161238,0.040590450167655945,0.024636724963784218
465,386,-0.1403341293334961,0.022932790219783783,-1000.0034790039062,0.0005666935467161238,0.040590450167655945,0.024636724963784218
469,386,-0.1403341293334961,0.022932790219783783,-1000.0034790039062,0.0005666935467161238,0.040590450167655945,0.024636724963784218
550,387,-0.057830262929201126,-0.038639046251773834,-1000.0263061523438,-0.10614108294248581,-0.0539981946349144,-0.001525182626210153
522,387,-0.057830262929201126,-0.038639046251773834,-1000.0263061523438,-0.10614108294248581,-0.0539981946349144,-0.001525182626210153
515,387,-0.057830262929201126,-0.038639046251773834,-1000.0263061523438,-0.10614108294248581,-0.0539981946349144,-0.001525182626210153
529,387,-0.057830262929201126,-0.038639046251773834,-1000.0263061523438,-0.10614108294248581,-0.0539981946349144,-0.001525182626210153
481,387,-0.057830262929201126,-0.038639046251773834,-1000.0263061523438,-0.10614108294248581,-0.0539981946349144,-0.001525182626210153
453,387,-0.057830262929201126,-0.038639046251773834,-1000.0263061523438,-0.10614108294248581,-0.0539981946349144,-0.001525182626210153
446,387,-0.057830262929201126,-0.038639046251773834,-1000.0263061523438,-0.10614108294248581,-0.0539981946349144,-0.001525182626210153
460,387,-0.057830262929201126,-0.038639046251773834,-1000.0263061523438,-0.10614108294248581,-0.0539981946349144,-0.001525182626210153
539,388,0.06587766855955124,-0.05037776380777359,-1000.0035400390625,0.05842936784029007,0.006791931577026844,0.04409316927194595
538,388,0.06587766855955124,-0.05037776380777359,-1000.0035400390625,0.05842936784029007,0.006791931577026844,0.04409316927194595
529,388,0.06587766855955124,-0.05037776380777359,-1000.0035400390625,0.05842936784029007,0.006791931577026844,0.04409316927194595
551,388,0.06587766855955124,-0.05037776380777359,-1000.0035400390625,0.05842936784029007,0.006791931577026844,0.04409316927194595
470,388,0.06587766855955124,-0.05037776380777359,-1000.0035400390625,0.05842936784029007,0.006791931577026844,0.04409316927194595
469,388,0.06587766855955124,-0.05037776380777359,-1000.0035400390625,0.05842936784029007,0.006791931577026844,0.04409316927194595
460,388,0.06587766855955124,-0.05037776380777359,-1000.0035400390625,0.05842936784029007,0.006791931577026844,0.04409316927194595
482,388,0.06587766855955124,-0.05037776380777359,-1000.0035400390625,0.05842936784029007,0.006791931577026844,0.04409316927194595
539,389,0.01235574297606945,0.10886543244123459,-999.9933471679688,0.0017189468489959836,0.06642468273639679,0.028449449688196182
544,389,0.01235574297606945,0.10886543244123459,-999.9933471679688,0.0017189468489959836,0.06642468273639679,0.028449449688196182
537,389,0.01235574297606945,0.10886543244123459,-999.9933471679688,0.0017189468489959836,0.06642468273639679,0.028449449688196182
536,389,0.01235574297606945,0.10886543244123459,-999.9933471679688,0.0017189468489959836,0.06642468273639679,0.028449449688196182
470,389,0.01235574297606945,0.10886543244123459,-999.9933471679688,0.0017189468489959836,0.06642468273639679,0.028449449688196182
475,389,0.01235574297606945,0.10886543244123459,-999.9933471679688,0.0017189468489959836,0.06642468273639679,0.028449449688196182
468,389,0.01235574297606945,0.10886543244123459,-999.9933471679688,0.0017189468489959836,0.06642468273639679,0.028449449688196182
467,389,0.01235574297606945,0.10886543244123459,-999.9933471679688,0.0017189468489959836,0.06642468273639679,0.028449449688196182
529,390,-0.17018941044807434,-0.10520968586206436,-1000.0053100585938,-8.331632852787152e-05,0.008004412055015564,-0.06473736464977264
538,390,-0.17018941044807434,-0.10520968586206436,-1000.0053100585938,-8.331632852787152e-05,0.008004412055015564,-0.06473736464977264
534,390,-0.17018941044807434,-0.10520968586206436,-1000.0053100585938,-8.331632852787152e-05,0.008004412055015564,-0.06473736464977264
550,390,-0.17018941044807434,-0.10520968586206436,-1000.0053100585938,-8.331632852787152e-05,0.008004412055015564,-0.06473736464977264
460,390,-0.17018941044807434,-0.10520968586206436,-1000.0053100585938,-8.331632852787152e-05,0.008004412055015564,-0.06473736464977264
469,390,-0.17018941044807434,-0.10520968586206436,-1000.0053100585938,-8.331632852787152e-05,0.008004412055015564,-0.06473736464977264
465,390,-0.17018941044807434,-0.10520968586206436,-1000.0053100585938,-8.331632852787152e-05,0.008004412055015564,-0.06473736464977264
481,390,-0.17018941044807434,-0.10520968586206436,-1000.0053100585938,-8.331632852787152e-05,0.008004412055015564,-0.06473736464977264
540,391,-0.04368561506271362,-0.10769832879304886,-999.997802734375,-0.031925980001688004,0.0011026428546756506,0.0015846146270632744
494,391,-0.04368561506271362,-0.10769832879304886,-999.997802734375,-0.031925980001688004,0.0011026428546756506,0.0015846146270632744
493,391,-0.04368561506271362,-0.10769832879304886,-999.997802734375,-0.031925980001688004,0.0011026428546756506,0.0015846146270632744
510,391,-0.04368561506271362,-0.10769832879304886,-999.997802734375,-0.031925980001688004,0.0011026428546756506,0.0015846146270632744
471,391,-0.04368561506271362,-0.10769832879304886,-999.997802734375,-0.031925980001688004,0.0011026428546756506,0.0015846146270632744
425,391,-0.04368561506271362,-0.10769832879304886,-999.997802734375,-0.031925980001688004,0.0011026428546756506,0.0015846146270632744
424,391,-0.04368561506271362,-0.10769832879304886,-999.997802734375,-0.031925980001688004,0.0011026428546756506,0.0015846146270632744
441,391,-0.04368561506271362,-0.10769832879304886,-999.997802734375,-0.031925980001688004,0.0011026428546756506,0.0015846146270632744
542,392,-0.030395058915019035,-0.06841665506362915,-1000.0025634765625,-0.044531140476465225,-0.005364949814975262,0.0007757162093184888
485,392,-0.030395058915019035,-0.06841665506362915,-1000.0025634765625,-0.044531140476465225,-0.005364949814975262,0.0007757162093184888
500,392,-0.030395058915019035,-0.06841665506362915,-1000.0025634765625,-0.044531140476465225,-0.005364949814975262,0.0007757162093184888
520,392,-0.030395058915019035,-0.06841665506362915,-1000.0025634765625,-0.044531140476465225,-0.005364949814975262,0.0007757162093184888
473,392,-0.030395058915019035,-0.06841665506362915,-1000.0025634765625,-0.044531140476465225,-0.005364949814975262,0.0007757162093184888
416,392,-0.030395058915019035,-0.06841665506362915,-1000.0025634765625,-0.044531140476465225,-0.005364949814975262,0.0007757162093184888
431,392,-0.030395058915019035,-0.06841665506362915,-1000.0025634765625,-0.044531140476465225,-0.005364949814975262,0.0007757162093184888
451,392,-0.030395058915019035,-0.06841665506362915,-1000.0025634765625,-0.044531140476465225,-0.005364949814975262,0.0007757162093184888
519,393,-0.04461352899670601,-0.0534156858921051,-1000.0260620117188,0.039489876478910446,0.023350253701210022,0.015575374476611614
543,393,-0.04461352899670601,-0.0534156858921051,-1000.0260620117188,0.039489876478910446,0.023350253701210022,0.015575374476611614
532,393,-0.04461352899670601,-0.0534156858921051,-1000.0260620117188,0.039489876478910446,0.023350253701210022,0.015575374476611614
520,393,-0.04461352899670601,-0.0534156858921051,-1000.0260620117188,0.039489876478910446,0.023350253701210022,0.015575374476611614
450,393,-0.04461352899670601,-0.0534156858921051,-1000.0260620117188,0.039489876478910446,0.023350253701210022,0.015575374476611614
474,393,-0.04461352899670601,-0.0534156858921051,-1000.0260620117188,0.039489876478910446,0.023350253701210022,0.015575374476611614
463,393,-0.04461352899670601,-0.0534156858921051,-1000.0260620117188,0.039489876478910446,0.023350253701210022,0.015575374476611614
451,393,-0.04461352899670601,-0.0534156858921051,-1000.0260620117188,0.039489876478910446,0.023350253701210022,0.015575374476611614
543,394,-0.11678844690322876,-0.09323425590991974,-1000.02099609375,-0.06844498217105865,-0.046359483152627945,0.054671961814165115
526,394,-0.11678844690322876,-0.09323425590991974,-1000.02099609375,-0.06844498217105865,-0.046359483152627945,0.054671961814165115
552,394,-0.11678844690322876,-0.09323425590991974,-1000.02099609375,-0.06844498217105865,-0.046359483152627945,0.054671961814165115
537,394,-0.11678844690322876,-0.09323425590991974,-1000.02099609375,-0.06844498217105865,-0.046359483152627945,0.054671961814165115
474,394,-0.11678844690322876,-0.09323425590991974,-1000.02099609375,-0.06844498217105865,-0.046359483152627945,0.054671961814165115
457,394,-0.11678844690322876,-0.09323425590991974,-1000.02099609375,-0.06844498217105865,-0.046359483152627945,0.054671961814165115
483,394,-0.11678844690322876,-0.09323425590991974,-1000.02099609375,-0.06844498217105865,-0.046359483152627945,0.054671961814165115
468,394,-0.11678844690322876,-0.09323425590991974,-1000.02099609375,-0.06844498217105865,-0.046359483152627945,0.054671961814165115
545,395,0.11169951409101486,0.3140779137611389,-999.936279296875,0.024497823789715767,0.04599570110440254,0.02286059595644474
506,395,0.11169951409101486,0.3140779137611389,-999.936279296875,0.024497823789715767,0.04599570110440254,0.02286059595644474
507,395,0.11169951409101486,0.3140779137611389,-999.936279296875,0.024497823789715767,0.04599570110440254,0.02286059595644474
531,395,0.11169951409101486,0.3140779137611389,-999.936279296875,0.024497823789715767,0.04599570110440254,0.02286059595644474
476,395,0.11169951409101486,0.3140779137611389,-999.936279296875,0.024497823789715767,0.04599570110440254,0.02286059595644474
437,395,0.11169951409101486,0.3140779137611389,-999.936279296875,0.024497823789715767,0.04599570110440254,0.02286059595644474
438,395,0.11169951409101486,0.3140779137611389,-999.936279296875,0.024497823789715767,0.04599570110440254,0.02286059595644474
462,395,0.11169951409101486,0.3140779137611389,-999.936279296875,0.024497823789715767,0.04599570110440254,0.02286059595644474
546,396,0.0914544016122818,0.18923258781433105,-999.9605102539062,0.05049534887075424,0.011716670356690884,-0.017823969945311546
524,396,0.0914544016122818,0.18923258781433105,-999.9605102539062,0.05049534887075424,0.011716670356690884,-0.017823969945311546
509,396,0.0914544016122818,0.18923258781433105,-999.9605102539062,0.05049534887075424,0.011716670356690884,-0.017823969945311546
530,396,0.0914544016122818,0.18923258781433105,-999.9605102539062,0.05049534887075424,0.011716670356690884,-0.017823969945311546
477,396,0.0914544016122818,0.18923258781433105,-999.9605102539062,0.05049534887075424,0.011716670356690884,-0.017823969945311546
455,396,0.0914544016122818,0.18923258781433105,-999.9605102539062,0.05049534887075424,0.011716670356690884,-0.017823969945311546
440,396,0.0914544016122818,0.18923258781433105,-999.9605102539062,0.05049534887075424,0.011716670356690884,-0.017823969945311546
461,396,0.0914544016122818,0.18923258781433105,-999.9605102539062,0.05049534887075424,0.011716670356690884,-0.017823969945311546
548,397,0.048820655792951584,-0.06644407659769058,-1000.0061645507812,-0.0041548036970198154,-0.026230061426758766,-0.003885013749822974
523,397,0.048820655792951584,-0.06644407659769058,-1000.0061645507812,-0.0041548036970198154,-0.026230061426758766,-0.003885013749822974
512,397,0.048820655792951584,-0.06644407659769058,-1000.0061645507812,-0.0041548036970198154,-0.026230061426758766,-0.003885013749822974
527,397,0.048820655792951584,-0.06644407659769058,-1000.0061645507812,-0.0041548036970198154,-0.026230061426758766,-0.003885013749822974
479,397,0.048820655792951584,-0.06644407659769058,-1000.0061645507812,-0.0041548036970198154,-0.026230061426758766,-0.003885013749822974
454,397,0.048820655792951584,-0.06644407659769058,-1000.0061645507812,-0.0041548036970198154,-0.026230061426758766,-0.003885013749822974
443,397,0.048820655792951584,-0.06644407659769058,-1000.0061645507812,-0.0041548036970198154,-0.026230061426758766,-0.003885013749822974
458,397,0.048820655792951584,-0.06644407659769058,-1000.0061645507812,-0.0041548036970198154,-0.026230061426758766,-0.003885013749822974
549,398,0.09028635919094086,-0.06366592645645142,-1000.0267333984375,-0.0368712842464447,-0.06578188389539719,-0.007673361338675022
513,398,0.09028635919094086,-0.06366592645645142,-1000.0267333984375,-0.0368712842464447,-0.06578188389539719,-0.007673361338675022
514,398,0.09028635919094086,-0.06366592645645142,-1000.0267333984375,-0.0368712842464447,-0.06578188389539719,-0.007673361338675022
534,398,0.09028635919094086,-0.06366592645645142,-1000.0267333984375,-0.0368712842464447,-0.06578188389539719,-0.007673361338675022
480,398,0.09028635919094086,-0.06366592645645142,-1000.0267333984375,-0.0368712842464447,-0.06578188389539719,-0.007673361338675022
444,398,0.09028635919094086,-0.06366592645645142,-1000.0267333984375,-0.0368712842464447,-0.06578188389539719,-0.007673361338675022
445,398,0.09028635919094086,-0.06366592645645142,-1000.0267333984375,-0.0368712842464447,-0.06578188389539719,-0.007673361338675022
465,398,0.09028635919094086,-0.06366592645645142,-1000.0267333984375,-0.0368712842464447,-0.06578188389539719,-0.007673361338675022
551,399,-0.10333919525146484,-0.01757492870092392,-1000.0161743164062,-0.04462070018053055,-0.01538146287202835,0.00785711221396923
516,399,-0.10333919525146484,-0.01757492870092392,-1000.0161743164062,-0.04462070018053055,-0.01538146287202835,0.00785711221396923
521,399,-0.10333919525146484,-0.01757492870092392,-1000.0161743164062,-0.04462070018053055,-0.01538146287202835,0.00785711221396923
533,399,-0.10333919525146484,-0.01757492870092392,-1000.0161743164062,-0.04462070018053055,-0.01538146287202835,0.00785711221396923
482,399,-0.10333919525146484,-0.01757492870092392,-1000.0161743164062,-0.04462070018053055,-0.01538146287202835,0.00785711221396923
447,399,-0.10333919525146484,-0.01757492870092392,-1000.0161743164062,-0.04462070018053055,-0.01538146287202835,0.00785711221396923
452,399,-0.10333919525146484,-0.01757492870092392,-1000.0161743164062,-0.04462070018053055,-0.01538146287202835,0.00785711221396923
464,399,-0.10333919525146484,-0.01757492870092392,-1000.0161743164062,-0.04462070018053055,-0.01538146287202835,0.00785711221396923
576,400,0.03596027195453644,0.17084269225597382,-999.99951171875,0.011131677776575089,0.0047228531911969185,-0.001368773402646184
565,400,0.03596027195453644,0.17084269225597382,-999.99951171875,0.011131677776575089,0.0047228531911969185,-0.001368773402646184
564,400,0.03596027195453644,0.17084269225597382,-999.99951171875,0.011131677776575089,0.0047228531911969185,-0.001368773402646184
593,400,0.03596027195453644,0.17084269225597382,-999.99951171875,0.011131677776575089,0.0047228531911969185,-0.001368773402646184
507,400,0.03596027195453644,0.17084269225597382,-999.99951171875,0.011131677776575089,0.0047228531911969185,-0.001368773402646184
496,400,0.03596027195453644,0.17084269225597382,-999.99951171875,0.011131677776575089,0.0047228531911969185,-0.001368773402646184
495,400,0.03596027195453644,0.17084269225597382,-999.99951171875,0.011131677776575089,0.0047228531911969185,-0.001368773402646184
524,400,0.03596027195453644,0.17084269225597382,-999.99951171875,0.011131677776575089,0.0047228531911969185,-0.001368773402646184
593,401,0.04976588115096092,0.17060236632823944,-1000.00146484375,-0.017840532585978508,0.0008117303950712085,-0.017412519082427025
564,401,0.04976588115096092,0.17060236632823944,-1000.00146484375,-0.017840532585978508,0.0008117303950712085,-0.017412519082427025
573,401,0.04976588115096092,0.17060236632823944,-1000.00146484375,-0.017840532585978508,0.0008117303950712085,-0.017412519082427025
578,401,0.04976588115096092,0.17060236632823944,-1000.00146484375,-0.017840532585978508,0.0008117303950712085,-0.017412519082427025
524,401,0.04976588115096092,0.17060236632823944,-1000.00146484375,-0.017840532585978508,0.0008117303950712085,-0.017412519082427025
495,401,0.04976588115096092,0.17060236632823944,-1000.00146484375,-0.017840532585978508,0.0008117303950712085,-0.017412519082427025
504,401,0.04976588115096092,0.17060236632823944,-1000.00146484375,-0.017840532585978508,0.0008117303950712085,-0.017412519082427025
509,401,0.04976588115096092,0.17060236632823944,-1000.00146484375,-0.017840532585978508,0.0008117303950712085,-0.017412519082427025
574,402,0.014594070613384247,0.00031432980904355645,-999.9972534179688,-0.01919795759022236,0.008640213869512081,0.0004615726647898555
594,402,0.014594070613384247,0.00031432980904355645,-999.9972534179688,-0.01919795759022236,0.008640213869512081,0.0004615726647898555
577,402,0.014594070613384247,0.00031432980904355645,-999.9972534179688,-0.01919795759022236,0.008640213869512081,0.0004615726647898555
567,402,0.014594070613384247,0.00031432980904355645,-999.9972534179688,-0.01919795759022236,0.008640213869512081,0.0004615726647898555
505,402,0.014594070613384247,0.00031432980904355645,-999.9972534179688,-0.01919795759022236,0.008640213869512081,0.0004615726647898555
525,402,0.014594070613384247,0.00031432980904355645,-999.9972534179688,-0.01919795759022236,0.008640213869512081,0.0004615726647898555
508,402,0.014594070613384247,0.00031432980904355645,-999.9972534179688,-0.01919795759022236,0.008640213869512081,0.0004615726647898555
498,402,0.014594070613384247,0.00031432980904355645,-999.9972534179688,-0.01919795759022236,0.008640213869512081,0.0004615726647898555
565,403,0.05369514599442482,0.16538220643997192,-999.9951782226562,-0.04448893293738365,0.011251271702349186,-0.010899802669882774
576,403,0.05369514599442482,0.16538220643997192,-999.9951782226562,-0.04448893293738365,0.011251271702349186,-0.010899802669882774
575,403,0.05369514599442482,0.16538220643997192,-999.9951782226562,-0.04448893293738365,0.011251271702349186,-0.010899802669882774
566,403,0.05369514599442482,0.16538220643997192,-999.9951782226562,-0.04448893293738365,0.011251271702349186,-0.010899802669882774
496,403,0.05369514599442482,0.16538220643997192,-999.9951782226562,-0.04448893293738365,0.011251271702349186,-0.010899802669882774
507,403,0.05369514599442482,0.16538220643997192,-999.9951782226562,-0.04448893293738365,0.011251271702349186,-0.010899802669882774
506,403,0.05369514599442482,0.16538220643997192,-999.9951782226562,-0.04448893293738365,0.011251271702349186,-0.010899802669882774
497,403,0.05369514599442482,0.16538220643997192,-999.9951782226562,-0.04448893293738365,0.011251271702349186,-0.010899802669882774
604,404,0.0412263385951519,0.02418030984699726,-999.9961547851562,0.024173852056264877,0.0028294287621974945,-0.030365759506821632
617,404,0.0412263385951519,0.02418030984699726,-999.9961547851562,0.024173852056264877,0.0028294287621974945,-0.030365759506821632
596,404,0.0412263385951519,0.02418030984699726,-999.9961547851562,0.024173852056264877,0.0028294287621974945,-0.030365759506821632
607,404,0.0412263385951519,0.02418030984699726,-999.9961547851562,0.024173852056264877,0.0028294287621974945,-0.030365759506821632
535,404,0.0412263385951519,0.02418030984699726,-999.9961547851562,0.024173852056264877,0.0028294287621974945,-0.030365759506821632
548,404,0.0412263385951519,0.02418030984699726,-999.9961547851562,0.024173852056264877,0.0028294287621974945,-0.030365759506821632
527,404,0.0412263385951519,0.02418030984699726,-999.9961547851562,0.024173852056264877,0.0028294287621974945,-0.030365759506821632
538,404,0.0412263385951519,0.02418030984699726,-999.9961547851562,0.024173852056264877,0.0028294287621974945,-0.030365759506821632
620,405,-0.196420356631279,-0.2245931327342987,-1000.0265502929688,-0.013204977847635746,-0.01240044366568327,0.007175979670137167
598,405,-0.196420356631279,-0.2245931327342987,-1000.0265502929688,-0.013204977847635746,-0.01240044366568327,0.007175979670137167
584,405,-0.196420356631279,-0.2245931327342987,-1000.0265502929688,-0.013204977847635746,-0.01240044366568327,0.007175979670137167
585,405,-0.196420356631279,-0.2245931327342987,-1000.0265502929688,-0.013204977847635746,-0.01240044366568327,0.007175979670137167
551,405,-0.196420356631279,-0.2245931327342987,-1000.0265502929688,-0.013204977847635746,-0.01240044366568327,0.007175979670137167
529,405,-0.196420356631279,-0.2245931327342987,-1000.0265502929688,-0.013204977847635746,-0.01240044366568327,0.007175979670137167
515,405,-0.196420356631279,-0.2245931327342987,-1000.0265502929688,-0.013204977847635746,-0.01240044366568327,0.007175979670137167
516,405,-0.196420356631279,-0.2245931327342987,-1000.0265502929688,-0.013204977847635746,-0.01240044366568327,0.007175979670137167
608,406,-0.07436998188495636,-0.11772005259990692,-1000.0113525390625,0.02645670622587204,0.030953293666243553,0.033666905015707016
605,406,-0.07436998188495636,-0.11772005259990692,-1000.0113525390625,0.02645670622587204,0.030953293666243553,0.033666905015707016
604,406,-0.07436998188495636,-0.11772005259990692,-1000.0113525390625,0.02645670622587204,0.030953293666243553,0.033666905015707016
607,406,-0.07436998188495636,-0.11772005259990692,-1000.0113525390625,0.02645670622587204,0.030953293666243553,0.033666905015707016
539,406,-0.07436998188495636,-0.11772005259990692,-1000.0113525390625,0.02645670622587204,0.030953293666243553,0.033666905015707016
536,406,-0.07436998188495636,-0.11772005259990692,-1000.0113525390625,0.02645670622587204,0.030953293666243553,0.033666905015707016
535,406,-0.07436998188495636,-0.11772005259990692,-1000.0113525390625,0.02645670622587204,0.030953293666243553,0.033666905015707016
538,406,-0.07436998188495636,-0.11772005259990692,-1000.0113525390625,0.02645670622587204,0.030953293666243553,0.033666905015707016
599,407,0.1315261870622635,0.22377891838550568,-999.9813842773438,0.0313338078558445,-0.042182836681604385,-0.026960846036672592
616,407,0.1315261870622635,0.22377891838550568,-999.9813842773438,0.0313338078558445,-0.042182836681604385,-0.026960846036672592
604,407,0.1315261870622635,0.22377891838550568,-999.9813842773438,0.0313338078558445,-0.042182836681604385,-0.026960846036672592
605,407,0.1315261870622635,0.22377891838550568,-999.9813842773438,0.0313338078558445,-0.042182836681604385,-0.026960846036672592
530,407,0.1315261870622635,0.22377891838550568,-999.9813842773438,0.0313338078558445,-0.042182836681604385,-0.026960846036672592
547,407,0.1315261870622635,0.22377891838550568,-999.9813842773438,0.0313338078558445,-0.042182836681604385,-0.026960846036672592
535,407,0.1315261870622635,0.22377891838550568,-999.9813842773438,0.0313338078558445,-0.042182836681604385,-0.026960846036672592
536,407,0.1315261870622635,0.22377891838550568,-999.9813842773438,0.0313338078558445,-0.042182836681604385,-0.026960846036672592
579,408,-0.038882527500391006,-0.07299505174160004,-999.9932861328125,-0.020127035677433014,-0.01648445799946785,0.025412393733859062
592,408,-0.038882527500391006,-0.07299505174160004,-999.9932861328125,-0.020127035677433014,-0.01648445799946785,0.025412393733859062
617,408,-0.038882527500391006,-0.07299505174160004,-999.9932861328125,-0.020127035677433014,-0.01648445799946785,0.025412393733859062
604,408,-0.038882527500391006,-0.07299505174160004,-999.9932861328125,-0.020127035677433014,-0.01648445799946785,0.025412393733859062
510,408,-0.038882527500391006,-0.07299505174160004,-999.9932861328125,-0.020127035677433014,-0.01648445799946785,0.025412393733859062
523,408,-0.038882527500391006,-0.07299505174160004,-999.9932861328125,-0.020127035677433014,-0.01648445799946785,0.025412393733859062
548,408,-0.038882527500391006,-0.07299505174160004,-999.9932861328125,-0.020127035677433014,-0.01648445799946785,0.025412393733859062
535,408,-0.038882527500391006,-0.07299505174160004,-999.9932861328125,-0.020127035677433014,-0.01648445799946785,0.025412393733859062
619,409,-0.2785111665725708,-0.15032857656478882,-1000.0372314453125,-0.06747667491436005,-0.053856898099184036,-0.04959508031606674
603,409,-0.2785111665725708,-0.15032857656478882,-1000.0372314453125,-0.06747667491436005,-0.053856898099184036,-0.04959508031606674
583,409,-0.2785111665725708,-0.15032857656478882,-1000.0372314453125,-0.06747667491436005,-0.053856898099184036,-0.04959508031606674
591,409,-0.2785111665725708,-0.15032857656478882,-1000.0372314453125,-0.06747667491436005,-0.053856898099184036,-0.04959508031606674
550,409,-0.2785111665725708,-0.15032857656478882,-1000.0372314453125,-0.06747667491436005,-0.053856898099184036,-0.04959508031606674
534,409,-0.2785111665725708,-0.15032857656478882,-1000.0372314453125,-0.06747667491436005,-0.053856898099184036,-0.04959508031606674
514,409,-0.2785111665725708,-0.15032857656478882,-1000.0372314453125,-0.06747667491436005,-0.053856898099184036,-0.04959508031606674
522,409,-0.2785111665725708,-0.15032857656478882,-1000.0372314453125,-0.06747667491436005,-0.053856898099184036,-0.04959508031606674
613,410,0.06851851940155029,0.12257590144872665,-999.9721069335938,0.03457336500287056,0.07235680520534515,-0.03476002439856529
608,410,0.06851851940155029,0.12257590144872665,-999.9721069335938,0.03457336500287056,0.07235680520534515,-0.03476002439856529
587,410,0.06851851940155029,0.12257590144872665,-999.9721069335938,0.03457336500287056,0.07235680520534515,-0.03476002439856529
601,410,0.06851851940155029,0.12257590144872665,-999.9721069335938,0.03457336500287056,0.07235680520534515,-0.03476002439856529
544,410,0.06851851940155029,0.12257590144872665,-999.9721069335938,0.03457336500287056,0.07235680520534515,-0.03476002439856529
539,410,0.06851851940155029,0.12257590144872665,-999.9721069335938,0.03457336500287056,0.07235680520534515,-0.03476002439856529
518,410,0.06851851940155029,0.12257590144872665,-999.9721069335938,0.03457336500287056,0.07235680520534515,-0.03476002439856529
532,410,0.06851851940155029,0.12257590144872665,-999.9721069335938,0.03457336500287056,0.07235680520534515,-0.03476002439856529
587,411,-0.1451253592967987,-0.08854807913303375,-999.9981689453125,-0.0887836292386055,-0.001093995408155024,-0.030454879626631737
602,411,-0.1451253592967987,-0.08854807913303375,-999.9981689453125,-0.0887836292386055,-0.001093995408155024,-0.030454879626631737
610,411,-0.1451253592967987,-0.08854807913303375,-999.9981689453125,-0.0887836292386055,-0.001093995408155024,-0.030454879626631737
611,411,-0.1451253592967987,-0.08854807913303375,-999.9981689453125,-0.0887836292386055,-0.001093995408155024,-0.030454879626631737
518,411,-0.1451253592967987,-0.08854807913303375,-999.9981689453125,-0.0887836292386055,-0.001093995408155024,-0.030454879626631737
533,411,-0.1451253592967987,-0.08854807913303375,-999.9981689453125,-0.0887836292386055,-0.001093995408155024,-0.030454879626631737
541,411,-0.1451253592967987,-0.08854807913303375,-999.9981689453125,-0.0887836292386055,-0.001093995408155024,-0.030454879626631737
542,411,-0.1451253592967987,-0.08854807913303375,-999.9981689453125,-0.0887836292386055,-0.001093995408155024,-0.030454879626631737
594,412,-0.0003978795139119029,0.046473268419504166,-999.939453125,0.1264864206314087,-0.012714264914393425,0.04516724869608879
575,412,-0.0003978795139119029,0.046473268419504166,-999.939453125,0.1264864206314087,-0.012714264914393425,0.04516724869608879
614,412,-0.0003978795139119029,0.046473268419504166,-999.939453125,0.1264864206314087,-0.012714264914393425,0.04516724869608879
597,412,-0.0003978795139119029,0.046473268419504166,-999.939453125,0.1264864206314087,-0.012714264914393425,0.04516724869608879
525,412,-0.0003978795139119029,0.046473268419504166,-999.939453125,0.1264864206314087,-0.012714264914393425,0.04516724869608879
506,412,-0.0003978795139119029,0.046473268419504166,-999.939453125,0.1264864206314087,-0.012714264914393425,0.04516724869608879
545,412,-0.0003978795139119029,0.046473268419504166,-999.939453125,0.1264864206314087,-0.012714264914393425,0.04516724869608879
528,412,-0.0003978795139119029,0.046473268419504166,-999.939453125,0.1264864206314087,-0.012714264914393425,0.04516724869608879
621,413,-0.09728100150823593,-0.2136286497116089,-1000.0516357421875,0.007719950284808874,-0.0137723907828331,-0.03954242542386055
577,413,-0.09728100150823593,-0.2136286497116089,-1000.0516357421875,0.007719950284808874,-0.0137723907828331,-0.03954242542386055
594,413,-0.09728100150823593,-0.2136286497116089,-1000.0516357421875,0.007719950284808874,-0.0137723907828331,-0.03954242542386055
597,413,-0.09728100150823593,-0.2136286497116089,-1000.0516357421875,0.007719950284808874,-0.0137723907828331,-0.03954242542386055
552,413,-0.09728100150823593,-0.2136286497116089,-1000.0516357421875,0.007719950284808874,-0.0137723907828331,-0.03954242542386055
508,413,-0.09728100150823593,-0.2136286497116089,-1000.0516357421875,0.007719950284808874,-0.0137723907828331,-0.03954242542386055
525,413,-0.09728100150823593,-0.2136286497116089,-1000.0516357421875,0.007719950284808874,-0.0137723907828331,-0.03954242542386055
528,413,-0.09728100150823593,-0.2136286497116089,-1000.0516357421875,0.007719950284808874,-0.0137723907828331,-0.03954242542386055
581,414,-0.12928946316242218,-0.1106463223695755,-1000.0220947265625,-0.01627735048532486,-0.026467254385352135,0.017558176070451736
582,414,-0.12928946316242218,-0.1106463223695755,-1000.0220947265625,-0.01627735048532486,-0.026467254385352135,0.017558176070451736
618,414,-0.12928946316242218,-0.1106463223695755,-1000.0220947265625,-0.01627735048532486,-0.026467254385352135,0.017558176070451736
596,414,-0.12928946316242218,-0.1106463223695755,-1000.0220947265625,-0.01627735048532486,-0.026467254385352135,0.017558176070451736
512,414,-0.12928946316242218,-0.1106463223695755,-1000.0220947265625,-0.01627735048532486,-0.026467254385352135,0.017558176070451736
513,414,-0.12928946316242218,-0.1106463223695755,-1000.0220947265625,-0.01627735048532486,-0.026467254385352135,0.017558176070451736
549,414,-0.12928946316242218,-0.1106463223695755,-1000.0220947265625,-0.01627735048532486,-0.026467254385352135,0.017558176070451736
527,414,-0.12928946316242218,-0.1106463223695755,-1000.0220947265625,-0.01627735048532486,-0.026467254385352135,0.017558176070451736
566,415,0.07403802871704102,0.162339448928833,-1000.001220703125,-0.06280999630689621,0.0024324560072273016,0.0042752851732075214
575,415,0.07403802871704102,0.162339448928833,-1000.001220703125,-0.06280999630689621,0.0024324560072273016,0.0042752851732075214
594,415,0.07403802871704102,0.162339448928833,-1000.001220703125,-0.06280999630689621,0.0024324560072273016,0.0042752851732075214
574,415,0.07403802871704102,0.162339448928833,-1000.001220703125,-0.06280999630689621,0.0024324560072273016,0.0042752851732075214
497,415,0.07403802871704102,0.162339448928833,-1000.001220703125,-0.06280999630689621,0.0024324560072273016,0.0042752851732075214
506,415,0.07403802871704102,0.162339448928833,-1000.001220703125,-0.06280999630689621,0.0024324560072273016,0.0042752851732075214
525,415,0.07403802871704102,0.162339448928833,-1000.001220703125,-0.06280999630689621,0.0024324560072273016,0.0042752851732075214
505,415,0.07403802871704102,0.162339448928833,-1000.001220703125,-0.06280999630689621,0.0024324560072273016,0.0042752851732075214
563,416,0.06960362195968628,0.20934376120567322,-999.9938354492188,0.030460579320788383,-0.006566531956195831,-0.0029559857212007046
609,416,0.06960362195968628,0.20934376120567322,-999.9938354492188,0.030460579320788383,-0.006566531956195831,-0.0029559857212007046
578,416,0.06960362195968628,0.20934376120567322,-999.9938354492188,0.030460579320788383,-0.006566531956195831,-0.0029559857212007046
573,416,0.06960362195968628,0.20934376120567322,-999.9938354492188,0.030460579320788383,-0.006566531956195831,-0.0029559857212007046
494,416,0.06960362195968628,0.20934376120567322,-999.9938354492188,0.030460579320788383,-0.006566531956195831,-0.0029559857212007046
540,416,0.06960362195968628,0.20934376120567322,-999.9938354492188,0.030460579320788383,-0.006566531956195831,-0.0029559857212007046
509,416,0.06960362195968628,0.20934376120567322,-999.9938354492188,0.030460579320788383,-0.006566531956195831,-0.0029559857212007046
504,416,0.06960362195968628,0.20934376120567322,-999.9938354492188,0.030460579320788383,-0.006566531956195831,-0.0029559857212007046
579,417,0.06605888158082962,0.0024164263159036636,-999.996337890625,0.021654672920703888,-0.00029230007203295827,-0.004142569378018379
562,417,0.06605888158082962,0.0024164263159036636,-999.996337890625,0.021654672920703888,-0.00029230007203295827,-0.004142569378018379
572,417,0.06605888158082962,0.0024164263159036636,-999.996337890625,0.021654672920703888,-0.00029230007203295827,-0.004142569378018379
592,417,0.06605888158082962,0.0024164263159036636,-999.996337890625,0.021654672920703888,-0.00029230007203295827,-0.004142569378018379
510,417,0.06605888158082962,0.0024164263159036636,-999.996337890625,0.021654672920703888,-0.00029230007203295827,-0.004142569378018379
493,417,0.06605888158082962,0.0024164263159036636,-999.996337890625,0.021654672920703888,-0.00029230007203295827,-0.004142569378018379
503,417,0.06605888158082962,0.0024164263159036636,-999.996337890625,0.021654672920703888,-0.00029230007203295827,-0.004142569378018379
523,417,0.06605888158082962,0.0024164263159036636,-999.996337890625,0.021654672920703888,-0.00029230007203295827,-0.004142569378018379
580,418,0.03218221664428711,0.020936567336320877,-1000.0049438476562,0.007290730252861977,0.001159251551143825,-0.0014257117873057723
568,418,0.03218221664428711,0.020936567336320877,-1000.0049438476562,0.007290730252861977,0.001159251551143825,-0.0014257117873057723
567,418,0.03218221664428711,0.020936567336320877,-1000.0049438476562,0.007290730252861977,0.001159251551143825,-0.0014257117873057723
577,418,0.03218221664428711,0.020936567336320877,-1000.0049438476562,0.007290730252861977,0.001159251551143825,-0.0014257117873057723
511,418,0.03218221664428711,0.020936567336320877,-1000.0049438476562,0.007290730252861977,0.001159251551143825,-0.0014257117873057723
499,418,0.03218221664428711,0.020936567336320877,-1000.0049438476562,0.007290730252861977,0.001159251551143825,-0.0014257117873057723
498,418,0.03218221664428711,0.020936567336320877,-1000.0049438476562,0.007290730252861977,0.001159251551143825,-0.0014257117873057723
508,418,0.03218221664428711,0.020936567336320877,-1000.0049438476562,0.007290730252861977,0.001159251551143825,-0.0014257117873057723
592,419,0.033262982964515686,0.006449547596275806,-1000.0053100585938,-0.0055399551056325436,-0.0010051224380731583,0.0017966285813599825
572,419,0.033262982964515686,0.006449547596275806,-1000.0053100585938,-0.0055399551056325436,-0.0010051224380731583,0.0017966285813599825
561,419,0.033262982964515686,0.006449547596275806,-1000.0053100585938,-0.0055399551056325436,-0.0010051224380731583,0.0017966285813599825
581,419,0.033262982964515686,0.006449547596275806,-1000.0053100585938,-0.0055399551056325436,-0.0010051224380731583,0.0017966285813599825
523,419,0.033262982964515686,0.006449547596275806,-1000.0053100585938,-0.0055399551056325436,-0.0010051224380731583,0.0017966285813599825
503,419,0.033262982964515686,0.006449547596275806,-1000.0053100585938,-0.0055399551056325436,-0.0010051224380731583,0.0017966285813599825
492,419,0.033262982964515686,0.006449547596275806,-1000.0053100585938,-0.0055399551056325436,-0.0010051224380731583,0.0017966285813599825
512,419,0.033262982964515686,0.006449547596275806,-1000.0053100585938,-0.0055399551056325436,-0.0010051224380731583,0.0017966285813599825
616,420,-0.08962604403495789,-0.06833528727293015,-1000.0198974609375,-0.08294683694839478,0.006785442121326923,-0.009615671820938587
609,420,-0.08962604403495789,-0.06833528727293015,-1000.0198974609375,-0.08294683694839478,0.006785442121326923,-0.009615671820938587
579,420,-0.08962604403495789,-0.06833528727293015,-1000.0198974609375,-0.08294683694839478,0.006785442121326923,-0.009615671820938587
604,420,-0.08962604403495789,-0.06833528727293015,-1000.0198974609375,-0.08294683694839478,0.006785442121326923,-0.009615671820938587
547,420,-0.08962604403495789,-0.06833528727293015,-1000.0198974609375,-0.08294683694839478,0.006785442121326923,-0.009615671820938587
540,420,-0.08962604403495789,-0.06833528727293015,-1000.0198974609375,-0.08294683694839478,0.006785442121326923,-0.009615671820938587
510,420,-0.08962604403495789,-0.06833528727293015,-1000.0198974609375,-0.08294683694839478,0.006785442121326923,-0.009615671820938587
535,420,-0.08962604403495789,-0.06833528727293015,-1000.0198974609375,-0.08294683694839478,0.006785442121326923,-0.009615671820938587
581,421,0.07447696477174759,-0.00446291221305728,-999.9929809570312,-0.019212916493415833,-0.004088379442691803,-0.00893317349255085
561,421,0.07447696477174759,-0.00446291221305728,-999.9929809570312,-0.019212916493415833,-0.004088379442691803,-0.00893317349255085
560,421,0.07447696477174759,-0.00446291221305728,-999.9929809570312,-0.019212916493415833,-0.004088379442691803,-0.00893317349255085
582,421,0.07447696477174759,-0.00446291221305728,-999.9929809570312,-0.019212916493415833,-0.004088379442691803,-0.00893317349255085
512,421,0.07447696477174759,-0.00446291221305728,-999.9929809570312,-0.019212916493415833,-0.004088379442691803,-0.00893317349255085
492,421,0.07447696477174759,-0.00446291221305728,-999.9929809570312,-0.019212916493415833,-0.004088379442691803,-0.00893317349255085
491,421,0.07447696477174759,-0.00446291221305728,-999.9929809570312,-0.019212916493415833,-0.004088379442691803,-0.00893317349255085
513,421,0.07447696477174759,-0.00446291221305728,-999.9929809570312,-0.019212916493415833,-0.004088379442691803,-0.00893317349255085
582,422,0.13124670088291168,0.05289384350180626,-1000.0079345703125,0.015853676944971085,-0.0052705020643770695,0.006398683413863182
560,422,0.13124670088291168,0.05289384350180626,-1000.0079345703125,0.015853676944971085,-0.0052705020643770695,0.006398683413863182
559,422,0.13124670088291168,0.05289384350180626,-1000.0079345703125,0.015853676944971085,-0.0052705020643770695,0.006398683413863182
583,422,0.13124670088291168,0.05289384350180626,-1000.0079345703125,0.015853676944971085,-0.0052705020643770695,0.006398683413863182
513,422,0.13124670088291168,0.05289384350180626,-1000.0079345703125,0.015853676944971085,-0.0052705020643770695,0.006398683413863182
491,422,0.13124670088291168,0.05289384350180626,-1000.0079345703125,0.015853676944971085,-0.0052705020643770695,0.006398683413863182
490,422,0.13124670088291168,0.05289384350180626,-1000.0079345703125,0.015853676944971085,-0.0052705020643770695,0.006398683413863182
514,422,0.13124670088291168,0.05289384350180626,-1000.0079345703125,0.015853676944971085,-0.0052705020643770695,0.006398683413863182
613,423,-0.031227175146341324,0.10442519187927246,-1000.0197143554688,0.019693205133080482,0.0030839024111628532,0.05018113926053047
601,423,-0.031227175146341324,0.10442519187927246,-1000.0197143554688,0.019693205133080482,0.0030839024111628532,0.05018113926053047
612,423,-0.031227175146341324,0.10442519187927246,-1000.0197143554688,0.019693205133080482,0.0030839024111628532,0.05018113926053047
606,423,-0.031227175146341324,0.10442519187927246,-1000.0197143554688,0.019693205133080482,0.0030839024111628532,0.05018113926053047
544,423,-0.031227175146341324,0.10442519187927246,-1000.0197143554688,0.019693205133080482,0.0030839024111628532,0.05018113926053047
532,423,-0.031227175146341324,0.10442519187927246,-1000.0197143554688,0.019693205133080482,0.0030839024111628532,0.05018113926053047
543,423,-0.031227175146341324,0.10442519187927246,-1000.0197143554688,0.019693205133080482,0.0030839024111628532,0.05018113926053047
537,423,-0.031227175146341324,0.10442519187927246,-1000.0197143554688,0.019693205133080482,0.0030839024111628532,0.05018113926053047
568,424,0.04380739480257034,0.010446857661008835,-999.9951782226562,0.04627716541290283,0.0015332410112023354,-0.006161296274513006
580,424,0.04380739480257034,0.010446857661008835,-999.9951782226562,0.04627716541290283,0.0015332410112023354,-0.006161296274513006
588,424,0.04380739480257034,0.010446857661008835,-999.9951782226562,0.04627716541290283,0.0015332410112023354,-0.006161296274513006
553,424,0.04380739480257034,0.010446857661008835,-999.9951782226562,0.04627716541290283,0.0015332410112023354,-0.006161296274513006
499,424,0.04380739480257034,0.010446857661008835,-999.9951782226562,0.04627716541290283,0.0015332410112023354,-0.006161296274513006
511,424,0.04380739480257034,0.010446857661008835,-999.9951782226562,0.04627716541290283,0.0015332410112023354,-0.006161296274513006
519,424,0.04380739480257034,0.010446857661008835,-999.9951782226562,0.04627716541290283,0.0015332410112023354,-0.006161296274513006
484,424,0.04380739480257034,0.010446857661008835,-999.9951782226562,0.04627716541290283,0.0015332410112023354,-0.006161296274513006
583,425,0.08389360457658768,-0.013540646992623806,-999.9904174804688,-0.006009512115269899,0.002718924544751644,0.0048830523155629635
559,425,0.08389360457658768,-0.013540646992623806,-999.9904174804688,-0.006009512115269899,0.002718924544751644,0.0048830523155629635
571,425,0.08389360457658768,-0.013540646992623806,-999.9904174804688,-0.006009512115269899,0.002718924544751644,0.0048830523155629635
591,425,0.08389360457658768,-0.013540646992623806,-999.9904174804688,-0.006009512115269899,0.002718924544751644,0.0048830523155629635
514,425,0.08389360457658768,-0.013540646992623806,-999.9904174804688,-0.006009512115269899,0.002718924544751644,0.0048830523155629635
490,425,0.08389360457658768,-0.013540646992623806,-999.9904174804688,-0.006009512115269899,0.002718924544751644,0.0048830523155629635
502,425,0.08389360457658768,-0.013540646992623806,-999.9904174804688,-0.006009512115269899,0.002718924544751644,0.0048830523155629635
522,425,0.08389360457658768,-0.013540646992623806,-999.9904174804688,-0.006009512115269899,0.002718924544751644,0.0048830523155629635
591,426,0.10226445645093918,0.06939280778169632,-1000.0088500976562,-0.03600272536277771,-0.008361170999705791,0.0031242412514984608
571,426,0.10226445645093918,0.06939280778169632,-1000.0088500976562,-0.03600272536277771,-0.008361170999705791,0.0031242412514984608
558,426,0.10226445645093918,0.06939280778169632,-1000.0088500976562,-0.03600272536277771,-0.008361170999705791,0.0031242412514984608
584,426,0.10226445645093918,0.06939280778169632,-1000.0088500976562,-0.03600272536277771,-0.008361170999705791,0.0031242412514984608
522,426,0.10226445645093918,0.06939280778169632,-1000.0088500976562,-0.03600272536277771,-0.008361170999705791,0.0031242412514984608
502,426,0.10226445645093918,0.06939280778169632,-1000.0088500976562,-0.03600272536277771,-0.008361170999705791,0.0031242412514984608
489,426,0.10226445645093918,0.06939280778169632,-1000.0088500976562,-0.03600272536277771,-0.008361170999705791,0.0031242412514984608
515,426,0.10226445645093918,0.06939280778169632,-1000.0088500976562,-0.03600272536277771,-0.008361170999705791,0.0031242412514984608
584,427,0.05242422595620155,0.10949975252151489,-999.9901123046875,-0.04319482669234276,0.004021915607154369,-0.0049849315546453
558,427,0.05242422595620155,0.10949975252151489,-999.9901123046875,-0.04319482669234276,0.004021915607154369,-0.0049849315546453
557,427,0.05242422595620155,0.10949975252151489,-999.9901123046875,-0.04319482669234276,0.004021915607154369,-0.0049849315546453
585,427,0.05242422595620155,0.10949975252151489,-999.9901123046875,-0.04319482669234276,0.004021915607154369,-0.0049849315546453
515,427,0.05242422595620155,0.10949975252151489,-999.9901123046875,-0.04319482669234276,0.004021915607154369,-0.0049849315546453
489,427,0.05242422595620155,0.10949975252151489,-999.9901123046875,-0.04319482669234276,0.004021915607154369,-0.0049849315546453
488,427,0.05242422595620155,0.10949975252151489,-999.9901123046875,-0.04319482669234276,0.004021915607154369,-0.0049849315546453
516,427,0.05242422595620155,0.10949975252151489,-999.9901123046875,-0.04319482669234276,0.004021915607154369,-0.0049849315546453
585,428,0.01160228531807661,0.06493563950061798,-1000.0079956054688,0.0036758515052497387,-0.010762655176222324,0.006785980425775051
557,428,0.01160228531807661,0.06493563950061798,-1000.0079956054688,0.0036758515052497387,-0.010762655176222324,0.006785980425775051
570,428,0.01160228531807661,0.06493563950061798,-1000.0079956054688,0.0036758515052497387,-0.010762655176222324,0.006785980425775051
590,428,0.01160228531807661,0.06493563950061798,-1000.0079956054688,0.0036758515052497387,-0.010762655176222324,0.006785980425775051
516,428,0.01160228531807661,0.06493563950061798,-1000.0079956054688,0.0036758515052497387,-0.010762655176222324,0.006785980425775051
488,428,0.01160228531807661,0.06493563950061798,-1000.0079956054688,0.0036758515052497387,-0.010762655176222324,0.006785980425775051
501,428,0.01160228531807661,0.06493563950061798,-1000.0079956054688,0.0036758515052497387,-0.010762655176222324,0.006785980425775051
521,428,0.01160228531807661,0.06493563950061798,-1000.0079956054688,0.0036758515052497387,-0.010762655176222324,0.006785980425775051
590,429,0.011394517496228218,0.05266067758202553,-999.9943237304688,0.014035308733582497,0.01635989174246788,-0.0015450672945007682
570,429,0.011394517496228218,0.05266067758202553,-999.9943237304688,0.014035308733582497,0.01635989174246788,-0.0015450672945007682
556,429,0.011394517496228218,0.05266067758202553,-999.9943237304688,0.014035308733582497,0.01635989174246788,-0.0015450672945007682
586,429,0.011394517496228218,0.05266067758202553,-999.9943237304688,0.014035308733582497,0.01635989174246788,-0.0015450672945007682
521,429,0.011394517496228218,0.05266067758202553,-999.9943237304688,0.014035308733582497,0.01635989174246788,-0.0015450672945007682
501,429,0.011394517496228218,0.05266067758202553,-999.9943237304688,0.014035308733582497,0.01635989174246788,-0.0015450672945007682
487,429,0.011394517496228218,0.05266067758202553,-999.9943237304688,0.014035308733582497,0.01635989174246788,-0.0015450672945007682
517,429,0.011394517496228218,0.05266067758202553,-999.9943237304688,0.014035308733582497,0.01635989174246788,-0.0015450672945007682
610,430,0.1663140058517456,0.1766556352376938,-999.9967041015625,0.07025359570980072,0.009509671479463577,0.00930358748883009
555,430,0.1663140058517456,0.1766556352376938,-999.9967041015625,0.07025359570980072,0.009509671479463577,0.00930358748883009
554,430,0.1663140058517456,0.1766556352376938,-999.9967041015625,0.07025359570980072,0.009509671479463577,0.00930358748883009
611,430,0.1663140058517456,0.1766556352376938,-999.9967041015625,0.07025359570980072,0.009509671479463577,0.00930358748883009
541,430,0.1663140058517456,0.1766556352376938,-999.9967041015625,0.07025359570980072,0.009509671479463577,0.00930358748883009
486,430,0.1663140058517456,0.1766556352376938,-999.9967041015625,0.07025359570980072,0.009509671479463577,0.00930358748883009
485,430,0.1663140058517456,0.1766556352376938,-999.9967041015625,0.07025359570980072,0.009509671479463577,0.00930358748883009
542,430,0.1663140058517456,0.1766556352376938,-999.9967041015625,0.07025359570980072,0.009509671479463577,0.00930358748883009
589,431,0.0035469664726406336,0.04744204133749008,-1000.0032958984375,0.011031324975192547,0.0035206906031817198,0.001102279988117516
569,431,0.0035469664726406336,0.04744204133749008,-1000.0032958984375,0.011031324975192547,0.0035206906031817198,0.001102279988117516
553,431,0.0035469664726406336,0.04744204133749008,-1000.0032958984375,0.011031324975192547,0.0035206906031817198,0.001102279988117516
588,431,0.0035469664726406336,0.04744204133749008,-1000.0032958984375,0.011031324975192547,0.0035206906031817198,0.001102279988117516
520,431,0.0035469664726406336,0.04744204133749008,-1000.0032958984375,0.011031324975192547,0.0035206906031817198,0.001102279988117516
500,431,0.0035469664726406336,0.04744204133749008,-1000.0032958984375,0.011031324975192547,0.0035206906031817198,0.001102279988117516
484,431,0.0035469664726406336,0.04744204133749008,-1000.0032958984375,0.011031324975192547,0.0035206906031817198,0.001102279988117516
519,431,0.0035469664726406336,0.04744204133749008,-1000.0032958984375,0.011031324975192547,0.0035206906031817198,0.001102279988117516
612,432,-0.17625845968723297,-0.2697003483772278,-1000.0540771484375,-0.045062098652124405,0.015553907491266727,0.02387894131243229
588,432,-0.17625845968723297,-0.2697003483772278,-1000.0540771484375,-0.045062098652124405,0.015553907491266727,0.02387894131243229
580,432,-0.17625845968723297,-0.2697003483772278,-1000.0540771484375,-0.045062098652124405,0.015553907491266727,0.02387894131243229
595,432,-0.17625845968723297,-0.2697003483772278,-1000.0540771484375,-0.045062098652124405,0.015553907491266727,0.02387894131243229
543,432,-0.17625845968723297,-0.2697003483772278,-1000.0540771484375,-0.045062098652124405,0.015553907491266727,0.02387894131243229
519,432,-0.17625845968723297,-0.2697003483772278,-1000.0540771484375,-0.045062098652124405,0.015553907491266727,0.02387894131243229
511,432,-0.17625845968723297,-0.2697003483772278,-1000.0540771484375,-0.045062098652124405,0.015553907491266727,0.02387894131243229
526,432,-0.17625845968723297,-0.2697003483772278,-1000.0540771484375,-0.045062098652124405,0.015553907491266727,0.02387894131243229
611,433,-0.08683311194181442,-0.20862208306789398,-1000.0264892578125,-0.026760660111904144,-0.0256581362336874,0.011435845866799355
589,433,-0.08683311194181442,-0.20862208306789398,-1000.0264892578125,-0.026760660111904144,-0.0256581362336874,0.011435845866799355
601,433,-0.08683311194181442,-0.20862208306789398,-1000.0264892578125,-0.026760660111904144,-0.0256581362336874,0.011435845866799355
587,433,-0.08683311194181442,-0.20862208306789398,-1000.0264892578125,-0.026760660111904144,-0.0256581362336874,0.011435845866799355
542,433,-0.08683311194181442,-0.20862208306789398,-1000.0264892578125,-0.026760660111904144,-0.0256581362336874,0.011435845866799355
520,433,-0.08683311194181442,-0.20862208306789398,-1000.0264892578125,-0.026760660111904144,-0.0256581362336874,0.011435845866799355
532,433,-0.08683311194181442,-0.20862208306789398,-1000.0264892578125,-0.026760660111904144,-0.0256581362336874,0.011435845866799355
518,433,-0.08683311194181442,-0.20862208306789398,-1000.0264892578125,-0.026760660111904144,-0.0256581362336874,0.011435845866799355
586,434,0.09135142713785172,0.11941088736057281,-999.9999389648438,0.08574746549129486,-0.017216643318533897,0.010022674687206745
556,434,0.09135142713785172,0.11941088736057281,-999.9999389648438,0.08574746549129486,-0.017216643318533897,0.010022674687206745
555,434,0.09135142713785172,0.11941088736057281,-999.9999389648438,0.08574746549129486,-0.017216643318533897,0.010022674687206745
610,434,0.09135142713785172,0.11941088736057281,-999.9999389648438,0.08574746549129486,-0.017216643318533897,0.010022674687206745
517,434,0.09135142713785172,0.11941088736057281,-999.9999389648438,0.08574746549129486,-0.017216643318533897,0.010022674687206745
487,434,0.09135142713785172,0.11941088736057281,-999.9999389648438,0.08574746549129486,-0.017216643318533897,0.010022674687206745
486,434,0.09135142713785172,0.11941088736057281,-999.9999389648438,0.08574746549129486,-0.017216643318533897,0.010022674687206745
541,434,0.09135142713785172,0.11941088736057281,-999.9999389648438,0.08574746549129486,-0.017216643318533897,0.010022674687206745
595,435,0.03566649556159973,0.23150373995304108,-999.9430541992188,-0.00867562834173441,-0.04278554394841194,0.03238052502274513
580,435,0.03566649556159973,0.23150373995304108,-999.9430541992188,-0.00867562834173441,-0.04278554394841194,0.03238052502274513
577,435,0.03566649556159973,0.23150373995304108,-999.9430541992188,-0.00867562834173441,-0.04278554394841194,0.03238052502274513
621,435,0.03566649556159973,0.23150373995304108,-999.9430541992188,-0.00867562834173441,-0.04278554394841194,0.03238052502274513
526,435,0.03566649556159973,0.23150373995304108,-999.9430541992188,-0.00867562834173441,-0.04278554394841194,0.03238052502274513
511,435,0.03566649556159973,0.23150373995304108,-999.9430541992188,-0.00867562834173441,-0.04278554394841194,0.03238052502274513
508,435,0.03566649556159973,0.23150373995304108,-999.9430541992188,-0.00867562834173441,-0.04278554394841194,0.03238052502274513
552,435,0.03566649556159973,0.23150373995304108,-999.9430541992188,-0.00867562834173441,-0.04278554394841194,0.03238052502274513
606,436,-0.03743404150009155,-0.08290309458971024,-1000.0084228515625,-0.07809478789567947,0.009778891690075397,0.046346891671419144
621,436,-0.03743404150009155,-0.08290309458971024,-1000.0084228515625,-0.07809478789567947,0.009778891690075397,0.046346891671419144
597,436,-0.03743404150009155,-0.08290309458971024,-1000.0084228515625,-0.07809478789567947,0.009778891690075397,0.046346891671419144
605,436,-0.03743404150009155,-0.08290309458971024,-1000.0084228515625,-0.07809478789567947,0.009778891690075397,0.046346891671419144
537,436,-0.03743404150009155,-0.08290309458971024,-1000.0084228515625,-0.07809478789567947,0.009778891690075397,0.046346891671419144
552,436,-0.03743404150009155,-0.08290309458971024,-1000.0084228515625,-0.07809478789567947,0.009778891690075397,0.046346891671419144
528,436,-0.03743404150009155,-0.08290309458971024,-1000.0084228515625,-0.07809478789567947,0.009778891690075397,0.046346891671419144
536,436,-0.03743404150009155,-0.08290309458971024,-1000.0084228515625,-0.07809478789567947,0.009778891690075397,0.046346891671419144
576,437,0.024229934439063072,-0.11661842465400696,-999.9396362304688,0.06398163735866547,-0.004663522355258465,0.06591691821813583
593,437,0.024229934439063072,-0.11661842465400696,-999.9396362304688,0.06398163735866547,-0.004663522355258465,0.06591691821813583
615,437,0.024229934439063072,-0.11661842465400696,-999.9396362304688,0.06398163735866547,-0.004663522355258465,0.06591691821813583
600,437,0.024229934439063072,-0.11661842465400696,-999.9396362304688,0.06398163735866547,-0.004663522355258465,0.06591691821813583
507,437,0.024229934439063072,-0.11661842465400696,-999.9396362304688,0.06398163735866547,-0.004663522355258465,0.06591691821813583
524,437,0.024229934439063072,-0.11661842465400696,-999.9396362304688,0.06398163735866547,-0.004663522355258465,0.06591691821813583
546,437,0.024229934439063072,-0.11661842465400696,-999.9396362304688,0.06398163735866547,-0.004663522355258465,0.06591691821813583
531,437,0.024229934439063072,-0.11661842465400696,-999.9396362304688,0.06398163735866547,-0.004663522355258465,0.06591691821813583
600,438,-0.021078063175082207,0.19350361824035645,-999.9955444335938,0.013964317739009857,0.014360147528350353,-0.07051436603069305
615,438,-0.021078063175082207,0.19350361824035645,-999.9955444335938,0.013964317739009857,0.014360147528350353,-0.07051436603069305
599,438,-0.021078063175082207,0.19350361824035645,-999.9955444335938,0.013964317739009857,0.014360147528350353,-0.07051436603069305
605,438,-0.021078063175082207,0.19350361824035645,-999.9955444335938,0.013964317739009857,0.014360147528350353,-0.07051436603069305
531,438,-0.021078063175082207,0.19350361824035645,-999.9955444335938,0.013964317739009857,0.014360147528350353,-0.07051436603069305
546,438,-0.021078063175082207,0.19350361824035645,-999.9955444335938,0.013964317739009857,0.014360147528350353,-0.07051436603069305
530,438,-0.021078063175082207,0.19350361824035645,-999.9955444335938,0.013964317739009857,0.014360147528350353,-0.07051436603069305
536,438,-0.021078063175082207,0.19350361824035645,-999.9955444335938,0.013964317739009857,0.014360147528350353,-0.07051436603069305
602,439,-0.1521686613559723,-0.16587716341018677,-1000.0145874023438,-0.0687260627746582,-0.008188334293663502,-0.012044641189277172
590,439,-0.1521686613559723,-0.16587716341018677,-1000.0145874023438,-0.0687260627746582,-0.008188334293663502,-0.012044641189277172
586,439,-0.1521686613559723,-0.16587716341018677,-1000.0145874023438,-0.0687260627746582,-0.008188334293663502,-0.012044641189277172
610,439,-0.1521686613559723,-0.16587716341018677,-1000.0145874023438,-0.0687260627746582,-0.008188334293663502,-0.012044641189277172
533,439,-0.1521686613559723,-0.16587716341018677,-1000.0145874023438,-0.0687260627746582,-0.008188334293663502,-0.012044641189277172
521,439,-0.1521686613559723,-0.16587716341018677,-1000.0145874023438,-0.0687260627746582,-0.008188334293663502,-0.012044641189277172
517,439,-0.1521686613559723,-0.16587716341018677,-1000.0145874023438,-0.0687260627746582,-0.008188334293663502,-0.012044641189277172
541,439,-0.1521686613559723,-0.16587716341018677,-1000.0145874023438,-0.0687260627746582,-0.008188334293663502,-0.012044641189277172
600,440,0.11124963313341141,0.21467646956443787,-999.9824829101562,-0.02849511057138443,0.05383497104048729,-0.002957399934530258
605,440,0.11124963313341141,0.21467646956443787,-999.9824829101562,-0.02849511057138443,0.05383497104048729,-0.002957399934530258
597,440,0.11124963313341141,0.21467646956443787,-999.9824829101562,-0.02849511057138443,0.05383497104048729,-0.002957399934530258
614,440,0.11124963313341141,0.21467646956443787,-999.9824829101562,-0.02849511057138443,0.05383497104048729,-0.002957399934530258
531,440,0.11124963313341141,0.21467646956443787,-999.9824829101562,-0.02849511057138443,0.05383497104048729,-0.002957399934530258
536,440,0.11124963313341141,0.21467646956443787,-999.9824829101562,-0.02849511057138443,0.05383497104048729,-0.002957399934530258
528,440,0.11124963313341141,0.21467646956443787,-999.9824829101562,-0.02849511057138443,0.05383497104048729,-0.002957399934530258
545,440,0.11124963313341141,0.21467646956443787,-999.9824829101562,-0.02849511057138443,0.05383497104048729,-0.002957399934530258
578,441,-0.050420936197042465,-0.28270891308784485,-999.9820556640625,0.01423826813697815,0.03392433002591133,0.03837806358933449
609,441,-0.050420936197042465,-0.28270891308784485,-999.9820556640625,0.01423826813697815,0.03392433002591133,0.03837806358933449
616,441,-0.050420936197042465,-0.28270891308784485,-999.9820556640625,0.01423826813697815,0.03392433002591133,0.03837806358933449
599,441,-0.050420936197042465,-0.28270891308784485,-999.9820556640625,0.01423826813697815,0.03392433002591133,0.03837806358933449
509,441,-0.050420936197042465,-0.28270891308784485,-999.9820556640625,0.01423826813697815,0.03392433002591133,0.03837806358933449
540,441,-0.050420936197042465,-0.28270891308784485,-999.9820556640625,0.01423826813697815,0.03392433002591133,0.03837806358933449
547,441,-0.050420936197042465,-0.28270891308784485,-999.9820556640625,0.01423826813697815,0.03392433002591133,0.03837806358933449
530,441,-0.050420936197042465,-0.28270891308784485,-999.9820556640625,0.01423826813697815,0.03392433002591133,0.03837806358933449
620,442,0.135771244764328,0.13688227534294128,-1000.0007934570312,0.04824366420507431,-0.014741577208042145,0.05315038189291954
602,442,0.135771244764328,0.13688227534294128,-1000.0007934570312,0.04824366420507431,-0.014741577208042145,0.05315038189291954
587,442,0.135771244764328,0.13688227534294128,-1000.0007934570312,0.04824366420507431,-0.014741577208042145,0.05315038189291954
608,442,0.135771244764328,0.13688227534294128,-1000.0007934570312,0.04824366420507431,-0.014741577208042145,0.05315038189291954
551,442,0.135771244764328,0.13688227534294128,-1000.0007934570312,0.04824366420507431,-0.014741577208042145,0.05315038189291954
533,442,0.135771244764328,0.13688227534294128,-1000.0007934570312,0.04824366420507431,-0.014741577208042145,0.05315038189291954
518,442,0.135771244764328,0.13688227534294128,-1000.0007934570312,0.04824366420507431,-0.014741577208042145,0.05315038189291954
539,442,0.135771244764328,0.13688227534294128,-1000.0007934570312,0.04824366420507431,-0.014741577208042145,0.05315038189291954
596,443,0.17250531911849976,-0.026608064770698547,-999.996337890625,-0.0003677080094348639,-0.04417896643280983,-0.026811979711055756
618,443,0.17250531911849976,-0.026608064770698547,-999.996337890625,-0.0003677080094348639,-0.04417896643280983,-0.026811979711055756
603,443,0.17250531911849976,-0.026608064770698547,-999.996337890625,-0.0003677080094348639,-0.04417896643280983,-0.026811979711055756
607,443,0.17250531911849976,-0.026608064770698547,-999.996337890625,-0.0003677080094348639,-0.04417896643280983,-0.026811979711055756
527,443,0.17250531911849976,-0.026608064770698547,-999.996337890625,-0.0003677080094348639,-0.04417896643280983,-0.026811979711055756
549,443,0.17250531911849976,-0.026608064770698547,-999.996337890625,-0.0003677080094348639,-0.04417896643280983,-0.026811979711055756
534,443,0.17250531911849976,-0.026608064770698547,-999.996337890625,-0.0003677080094348639,-0.04417896643280983,-0.026811979711055756
538,443,0.17250531911849976,-0.026608064770698547,-999.996337890625,-0.0003677080094348639,-0.04417896643280983,-0.026811979711055756
619,444,0.06613276898860931,0.04619510471820831,-999.9703979492188,0.12847591936588287,0.05827370285987854,0.00017592968652024865
591,444,0.06613276898860931,0.04619510471820831,-999.9703979492188,0.12847591936588287,0.05827370285987854,0.00017592968652024865
584,444,0.06613276898860931,0.04619510471820831,-999.9703979492188,0.12847591936588287,0.05827370285987854,0.00017592968652024865
598,444,0.06613276898860931,0.04619510471820831,-999.9703979492188,0.12847591936588287,0.05827370285987854,0.00017592968652024865
550,444,0.06613276898860931,0.04619510471820831,-999.9703979492188,0.12847591936588287,0.05827370285987854,0.00017592968652024865
522,444,0.06613276898860931,0.04619510471820831,-999.9703979492188,0.12847591936588287,0.05827370285987854,0.00017592968652024865
515,444,0.06613276898860931,0.04619510471820831,-999.9703979492188,0.12847591936588287,0.05827370285987854,0.00017592968652024865
529,444,0.06613276898860931,0.04619510471820831,-999.9703979492188,0.12847591936588287,0.05827370285987854,0.00017592968652024865
608,445,-0.07907102257013321,0.06122806668281555,-999.99609375,-0.07095219194889069,-0.005912192165851593,-0.04938378185033798
607,445,-0.07907102257013321,0.06122806668281555,-999.99609375,-0.07095219194889069,-0.005912192165851593,-0.04938378185033798
598,445,-0.07907102257013321,0.06122806668281555,-999.99609375,-0.07095219194889069,-0.005912192165851593,-0.04938378185033798
620,445,-0.07907102257013321,0.06122806668281555,-999.99609375,-0.07095219194889069,-0.005912192165851593,-0.04938378185033798
539,445,-0.07907102257013321,0.06122806668281555,-999.99609375,-0.07095219194889069,-0.005912192165851593,-0.04938378185033798
538,445,-0.07907102257013321,0.06122806668281555,-999.99609375,-0.07095219194889069,-0.005912192165851593,-0.04938378185033798
529,445,-0.07907102257013321,0.06122806668281555,-999.99609375,-0.07095219194889069,-0.005912192165851593,-0.04938378185033798
551,445,-0.07907102257013321,0.06122806668281555,-999.99609375,-0.07095219194889069,-0.005912192165851593,-0.04938378185033798
608,446,-0.015869656577706337,-0.13331206142902374,-1000.0086669921875,-0.0014246676582843065,-0.07739042490720749,-0.03241831809282303
613,446,-0.015869656577706337,-0.13331206142902374,-1000.0086669921875,-0.0014246676582843065,-0.07739042490720749,-0.03241831809282303
606,446,-0.015869656577706337,-0.13331206142902374,-1000.0086669921875,-0.0014246676582843065,-0.07739042490720749,-0.03241831809282303
605,446,-0.015869656577706337,-0.13331206142902374,-1000.0086669921875,-0.0014246676582843065,-0.07739042490720749,-0.03241831809282303
539,446,-0.015869656577706337,-0.13331206142902374,-1000.0086669921875,-0.0014246676582843065,-0.07739042490720749,-0.03241831809282303
544,446,-0.015869656577706337,-0.13331206142902374,-1000.0086669921875,-0.0014246676582843065,-0.07739042490720749,-0.03241831809282303
537,446,-0.015869656577706337,-0.13331206142902374,-1000.0086669921875,-0.0014246676582843065,-0.07739042490720749,-0.03241831809282303
536,446,-0.015869656577706337,-0.13331206142902374,-1000.0086669921875,-0.0014246676582843065,-0.07739042490720749,-0.03241831809282303
598,447,0.20489107072353363,0.12616747617721558,-999.9931640625,-0.001508304150775075,-0.011713705956935883,0.07196111232042313
607,447,0.20489107072353363,0.12616747617721558,-999.9931640625,-0.001508304150775075,-0.011713705956935883,0.07196111232042313
603,447,0.20489107072353363,0.12616747617721558,-999.9931640625,-0.001508304150775075,-0.011713705956935883,0.07196111232042313
619,447,0.20489107072353363,0.12616747617721558,-999.9931640625,-0.001508304150775075,-0.011713705956935883,0.07196111232042313
529,447,0.20489107072353363,0.12616747617721558,-999.9931640625,-0.001508304150775075,-0.011713705956935883,0.07196111232042313
538,447,0.20489107072353363,0.12616747617721558,-999.9931640625,-0.001508304150775075,-0.011713705956935883,0.07196111232042313
534,447,0.20489107072353363,0.12616747617721558,-999.9931640625,-0.001508304150775075,-0.011713705956935883,0.07196111232042313
550,447,0.20489107072353363,0.12616747617721558,-999.9931640625,-0.001508304150775075,-0.011713705956935883,0.07196111232042313
609,448,0.05387101694941521,0.13095296919345856,-1000.0027465820312,0.039457857608795166,-0.0015511892270296812,-0.001447624177671969
563,448,0.05387101694941521,0.13095296919345856,-1000.0027465820312,0.039457857608795166,-0.0015511892270296812,-0.001447624177671969
562,448,0.05387101694941521,0.13095296919345856,-1000.0027465820312,0.039457857608795166,-0.0015511892270296812,-0.001447624177671969
579,448,0.05387101694941521,0.13095296919345856,-1000.0027465820312,0.039457857608795166,-0.0015511892270296812,-0.001447624177671969
540,448,0.05387101694941521,0.13095296919345856,-1000.0027465820312,0.039457857608795166,-0.0015511892270296812,-0.001447624177671969
494,448,0.05387101694941521,0.13095296919345856,-1000.0027465820312,0.039457857608795166,-0.0015511892270296812,-0.001447624177671969
493,448,0.05387101694941521,0.13095296919345856,-1000.0027465820312,0.039457857608795166,-0.0015511892270296812,-0.001447624177671969
510,448,0.05387101694941521,0.13095296919345856,-1000.0027465820312,0.039457857608795166,-0.0015511892270296812,-0.001447624177671969
611,449,0.0379689559340477,0.08618193864822388,-999.9970703125,0.05478653684258461,0.006716315634548664,-0.0018382832640781999
554,449,0.0379689559340477,0.08618193864822388,-999.9970703125,0.05478653684258461,0.006716315634548664,-0.0018382832640781999
569,449,0.0379689559340477,0.08618193864822388,-999.9970703125,0.05478653684258461,0.006716315634548664,-0.0018382832640781999
589,449,0.0379689559340477,0.08618193864822388,-999.9970703125,0.05478653684258461,0.006716315634548664,-0.0018382832640781999
542,449,0.0379689559340477,0.08618193864822388,-999.9970703125,0.05478653684258461,0.006716315634548664,-0.0018382832640781999
485,449,0.0379689559340477,0.08618193864822388,-999.9970703125,0.05478653684258461,0.006716315634548664,-0.0018382832640781999
500,449,0.0379689559340477,0.08618193864822388,-999.9970703125,0.05478653684258461,0.006716315634548664,-0.0018382832640781999
520,449,0.0379689559340477,0.08618193864822388,-999.9970703125,0.05478653684258461,0.006716315634548664,-0.0018382832640781999
588,450,0.05510690063238144,0.06519223004579544,-999.9678955078125,-0.04878151789307594,-0.027632348239421844,-0.014614871703088284
612,450,0.05510690063238144,0.06519223004579544,-999.9678955078125,-0.04878151789307594,-0.027632348239421844,-0.014614871703088284
601,450,0.05510690063238144,0.06519223004579544,-999.9678955078125,-0.04878151789307594,-0.027632348239421844,-0.014614871703088284
589,450,0.05510690063238144,0.06519223004579544,-999.9678955078125,-0.04878151789307594,-0.027632348239421844,-0.014614871703088284
519,450,0.05510690063238144,0.06519223004579544,-999.9678955078125,-0.04878151789307594,-0.027632348239421844,-0.014614871703088284
543,450,0.05510690063238144,0.06519223004579544,-999.9678955078125,-0.04878151789307594,-0.027632348239421844,-0.014614871703088284
532,450,0.05510690063238144,0.06519223004579544,-999.9678955078125,-0.04878151789307594,-0.027632348239421844,-0.014614871703088284
520,450,0.05510690063238144,0.06519223004579544,-999.9678955078125,-0.04878151789307594,-0.027632348239421844,-0.014614871703088284
612,451,0.1464901566505432,0.11234930902719498,-999.9741821289062,0.08248339593410492,0.058485247194767,-0.0616900771856308
595,451,0.1464901566505432,0.11234930902719498,-999.9741821289062,0.08248339593410492,0.058485247194767,-0.0616900771856308
621,451,0.1464901566505432,0.11234930902719498,-999.9741821289062,0.08248339593410492,0.058485247194767,-0.0616900771856308
606,451,0.1464901566505432,0.11234930902719498,-999.9741821289062,0.08248339593410492,0.058485247194767,-0.0616900771856308
543,451,0.1464901566505432,0.11234930902719498,-999.9741821289062,0.08248339593410492,0.058485247194767,-0.0616900771856308
526,451,0.1464901566505432,0.11234930902719498,-999.9741821289062,0.08248339593410492,0.058485247194767,-0.0616900771856308
552,451,0.1464901566505432,0.11234930902719498,-999.9741821289062,0.08248339593410492,0.058485247194767,-0.0616900771856308
537,451,0.1464901566505432,0.11234930902719498,-999.9741821289062,0.08248339593410492,0.058485247194767,-0.0616900771856308
614,452,-0.13486653566360474,-0.3788074553012848,-1000.0807495117188,-0.02889787033200264,-0.05137030780315399,-0.028617359697818756
575,452,-0.13486653566360474,-0.3788074553012848,-1000.0807495117188,-0.02889787033200264,-0.05137030780315399,-0.028617359697818756
576,452,-0.13486653566360474,-0.3788074553012848,-1000.0807495117188,-0.02889787033200264,-0.05137030780315399,-0.028617359697818756
600,452,-0.13486653566360474,-0.3788074553012848,-1000.0807495117188,-0.02889787033200264,-0.05137030780315399,-0.028617359697818756
545,452,-0.13486653566360474,-0.3788074553012848,-1000.0807495117188,-0.02889787033200264,-0.05137030780315399,-0.028617359697818756
506,452,-0.13486653566360474,-0.3788074553012848,-1000.0807495117188,-0.02889787033200264,-0.05137030780315399,-0.028617359697818756
507,452,-0.13486653566360474,-0.3788074553012848,-1000.0807495117188,-0.02889787033200264,-0.05137030780315399,-0.028617359697818756
531,452,-0.13486653566360474,-0.3788074553012848,-1000.0807495117188,-0.02889787033200264,-0.05137030780315399,-0.028617359697818756
615,453,-0.10850333422422409,-0.22905787825584412,-1000.0512084960938,-0.05918958783149719,-0.01150124054402113,0.01846335083246231
593,453,-0.10850333422422409,-0.22905787825584412,-1000.0512084960938,-0.05918958783149719,-0.01150124054402113,0.01846335083246231
578,453,-0.10850333422422409,-0.22905787825584412,-1000.0512084960938,-0.05918958783149719,-0.01150124054402113,0.01846335083246231
599,453,-0.10850333422422409,-0.22905787825584412,-1000.0512084960938,-0.05918958783149719,-0.01150124054402113,0.01846335083246231
546,453,-0.10850333422422409,-0.22905787825584412,-1000.0512084960938,-0.05918958783149719,-0.01150124054402113,0.01846335083246231
524,453,-0.10850333422422409,-0.22905787825584412,-1000.0512084960938,-0.05918958783149719,-0.01150124054402113,0.01846335083246231
509,453,-0.10850333422422409,-0.22905787825584412,-1000.0512084960938,-0.05918958783149719,-0.01150124054402113,0.01846335083246231
530,453,-0.10850333422422409,-0.22905787825584412,-1000.0512084960938,-0.05918958783149719,-0.01150124054402113,0.01846335083246231
617,454,-0.06037144362926483,0.07878337800502777,-999.9942626953125,0.004380995873361826,0.03229519724845886,0.002829189645126462
592,454,-0.06037144362926483,0.07878337800502777,-999.9942626953125,0.004380995873361826,0.03229519724845886,0.002829189645126462
581,454,-0.06037144362926483,0.07878337800502777,-999.9942626953125,0.004380995873361826,0.03229519724845886,0.002829189645126462
596,454,-0.06037144362926483,0.07878337800502777,-999.9942626953125,0.004380995873361826,0.03229519724845886,0.002829189645126462
548,454,-0.06037144362926483,0.07878337800502777,-999.9942626953125,0.004380995873361826,0.03229519724845886,0.002829189645126462
523,454,-0.06037144362926483,0.07878337800502777,-999.9942626953125,0.004380995873361826,0.03229519724845886,0.002829189645126462
512,454,-0.06037144362926483,0.07878337800502777,-999.9942626953125,0.004380995873361826,0.03229519724845886,0.002829189645126462
527,454,-0.06037144362926483,0.07878337800502777,-999.9942626953125,0.004380995873361826,0.03229519724845886,0.002829189645126462
618,455,-0.11139603704214096,0.07532232999801636,-999.9703979492188,0.04422527924180031,0.07237447798252106,0.0064497170969843864
582,455,-0.11139603704214096,0.07532232999801636,-999.9703979492188,0.04422527924180031,0.07237447798252106,0.0064497170969843864
583,455,-0.11139603704214096,0.07532232999801636,-999.9703979492188,0.04422527924180031,0.07237447798252106,0.0064497170969843864
603,455,-0.11139603704214096,0.07532232999801636,-999.9703979492188,0.04422527924180031,0.07237447798252106,0.0064497170969843864
549,455,-0.11139603704214096,0.07532232999801636,-999.9703979492188,0.04422527924180031,0.07237447798252106,0.0064497170969843864
513,455,-0.11139603704214096,0.07532232999801636,-999.9703979492188,0.04422527924180031,0.07237447798252106,0.0064497170969843864
514,455,-0.11139603704214096,0.07532232999801636,-999.9703979492188,0.04422527924180031,0.07237447798252106,0.0064497170969843864
534,455,-0.11139603704214096,0.07532232999801636,-999.9703979492188,0.04422527924180031,0.07237447798252106,0.0064497170969843864
620,456,0.12374947965145111,0.019200077280402184,-999.9805297851562,0.05349288135766983,0.01756591722369194,-0.010737111791968346
585,456,0.12374947965145111,0.019200077280402184,-999.9805297851562,0.05349288135766983,0.01756591722369194,-0.010737111791968346
590,456,0.12374947965145111,0.019200077280402184,-999.9805297851562,0.05349288135766983,0.01756591722369194,-0.010737111791968346
602,456,0.12374947965145111,0.019200077280402184,-999.9805297851562,0.05349288135766983,0.01756591722369194,-0.010737111791968346
551,456,0.12374947965145111,0.019200077280402184,-999.9805297851562,0.05349288135766983,0.01756591722369194,-0.010737111791968346
516,456,0.12374947965145111,0.019200077280402184,-999.9805297851562,0.05349288135766983,0.01756591722369194,-0.010737111791968346
521,456,0.12374947965145111,0.019200077280402184,-999.9805297851562,0.05349288135766983,0.01756591722369194,-0.010737111791968346
533,456,0.12374947965145111,0.019200077280402184,-999.9805297851562,0.05349288135766983,0.01756591722369194,-0.010737111791968346
645,457,-0.04182664677500725,-0.20294612646102905,-1000.0010375976562,-0.012548818252980709,-0.0055216518230736256,0.0007114578038454056
634,457,-0.04182664677500725,-0.20294612646102905,-1000.0010375976562,-0.012548818252980709,-0.0055216518230736256,0.0007114578038454056
633,457,-0.04182664677500725,-0.20294612646102905,-1000.0010375976562,-0.012548818252980709,-0.0055216518230736256,0.0007114578038454056
662,457,-0.04182664677500725,-0.20294612646102905,-1000.0010375976562,-0.012548818252980709,-0.0055216518230736256,0.0007114578038454056
576,457,-0.04182664677500725,-0.20294612646102905,-1000.0010375976562,-0.012548818252980709,-0.0055216518230736256,0.0007114578038454056
565,457,-0.04182664677500725,-0.20294612646102905,-1000.0010375976562,-0.012548818252980709,-0.0055216518230736256,0.0007114578038454056
564,457,-0.04182664677500725,-0.20294612646102905,-1000.0010375976562,-0.012548818252980709,-0.0055216518230736256,0.0007114578038454056
593,457,-0.04182664677500725,-0.20294612646102905,-1000.0010375976562,-0.012548818252980709,-0.0055216518230736256,0.0007114578038454056
662,458,-0.060373615473508835,-0.20454251766204834,-999.9978637695312,0.021272219717502594,-0.0006508215446956456,0.01952590048313141
633,458,-0.060373615473508835,-0.20454251766204834,-999.9978637695312,0.021272219717502594,-0.0006508215446956456,0.01952590048313141
642,458,-0.060373615473508835,-0.20454251766204834,-999.9978637695312,0.021272219717502594,-0.0006508215446956456,0.01952590048313141
647,458,-0.060373615473508835,-0.20454251766204834,-999.9978637695312,0.021272219717502594,-0.0006508215446956456,0.01952590048313141
593,458,-0.060373615473508835,-0.20454251766204834,-999.9978637695312,0.021272219717502594,-0.0006508215446956456,0.01952590048313141
564,458,-0.060373615473508835,-0.20454251766204834,-999.9978637695312,0.021272219717502594,-0.0006508215446956456,0.01952590048313141
573,458,-0.060373615473508835,-0.20454251766204834,-999.9978637695312,0.021272219717502594,-0.0006508215446956456,0.01952590048313141
578,458,-0.060373615473508835,-0.20454251766204834,-999.9978637695312,0.021272219717502594,-0.0006508215446956456,0.01952590048313141
643,459,-0.02036946639418602,-0.0026240344159305096,-1000.002685546875,0.0223319660872221,-0.009502727538347244,0.0003602371725719422
663,459,-0.02036946639418602,-0.0026240344159305096,-1000.002685546875,0.0223319660872221,-0.009502727538347244,0.0003602371725719422
646,459,-0.02036946639418602,-0.0026240344159305096,-1000.002685546875,0.0223319660872221,-0.009502727538347244,0.0003602371725719422
636,459,-0.02036946639418602,-0.0026240344159305096,-1000.002685546875,0.0223319660872221,-0.009502727538347244,0.0003602371725719422
574,459,-0.02036946639418602,-0.0026240344159305096,-1000.002685546875,0.0223319660872221,-0.009502727538347244,0.0003602371725719422
594,459,-0.02036946639418602,-0.0026240344159305096,-1000.002685546875,0.0223319660872221,-0.009502727538347244,0.0003602371725719422
577,459,-0.02036946639418602,-0.0026240344159305096,-1000.002685546875,0.0223319660872221,-0.009502727538347244,0.0003602371725719422
567,459,-0.02036946639418602,-0.0026240344159305096,-1000.002685546875,0.0223319660872221,-0.009502727538347244,0.0003602371725719422
634,460,-0.06566688418388367,-0.1995275467634201,-1000.0054321289062,0.05226012319326401,-0.012216215953230858,0.012104976922273636
645,460,-0.06566688418388367,-0.1995275467634201,-1000.0054321289062,0.05226012319326401,-0.012216215953230858,0.012104976922273636
644,460,-0.06566688418388367,-0.1995275467634201,-1000.0054321289062,0.05226012319326401,-0.012216215953230858,0.012104976922273636
635,460,-0.06566688418388367,-0.1995275467634201,-1000.0054321289062,0.05226012319326401,-0.012216215953230858,0.012104976922273636
565,460,-0.06566688418388367,-0.1995275467634201,-1000.0054321289062,0.05226012319326401,-0.012216215953230858,0.012104976922273636
576,460,-0.06566688418388367,-0.1995275467634201,-1000.0054321289062,0.05226012319326401,-0.012216215953230858,0.012104976922273636
575,460,-0.06566688418388367,-0.1995275467634201,-1000.0054321289062,0.05226012319326401,-0.012216215953230858,0.012104976922273636
566,460,-0.06566688418388367,-0.1995275467634201,-1000.0054321289062,0.05226012319326401,-0.012216215953230858,0.012104976922273636
673,461,-0.04970842972397804,-0.029142916202545166,-1000.004150390625,-0.030094798654317856,-0.0011192739475518465,0.035258639603853226
686,461,-0.04970842972397804,-0.029142916202545166,-1000.004150390625,-0.030094798654317856,-0.0011192739475518465,0.035258639603853226
665,461,-0.04970842972397804,-0.029142916202545166,-1000.004150390625,-0.030094798654317856,-0.0011192739475518465,0.035258639603853226
676,461,-0.04970842972397804,-0.029142916202545166,-1000.004150390625,-0.030094798654317856,-0.0011192739475518465,0.035258639603853226
604,461,-0.04970842972397804,-0.029142916202545166,-1000.004150390625,-0.030094798654317856,-0.0011192739475518465,0.035258639603853226
617,461,-0.04970842972397804,-0.029142916202545166,-1000.004150390625,-0.030094798654317856,-0.0011192739475518465,0.035258639603853226
596,461,-0.04970842972397804,-0.029142916202545166,-1000.004150390625,-0.030094798654317856,-0.0011192739475518465,0.035258639603853226
607,461,-0.04970842972397804,-0.029142916202545166,-1000.004150390625,-0.030094798654317856,-0.0011192739475518465,0.035258639603853226
689,462,0.2334432601928711,0.2667286694049835,-999.96875,0.01426757499575615,0.012337935157120228,-0.009804819710552692
667,462,0.2334432601928711,0.2667286694049835,-999.96875,0.01426757499575615,0.012337935157120228,-0.009804819710552692
653,462,0.2334432601928711,0.2667286694049835,-999.96875,0.01426757499575615,0.012337935157120228,-0.009804819710552692
654,462,0.2334432601928711,0.2667286694049835,-999.96875,0.01426757499575615,0.012337935157120228,-0.009804819710552692
620,462,0.2334432601928711,0.2667286694049835,-999.96875,0.01426757499575615,0.012337935157120228,-0.009804819710552692
598,462,0.2334432601928711,0.2667286694049835,-999.96875,0.01426757499575615,0.012337935157120228,-0.009804819710552692
584,462,0.2334432601928711,0.2667286694049835,-999.96875,0.01426757499575615,0.012337935157120228,-0.009804819710552692
585,462,0.2334432601928711,0.2667286694049835,-999.96875,0.01426757499575615,0.012337935157120228,-0.009804819710552692
677,463,0.08997199684381485,0.14127328991889954,-999.9865112304688,-0.032424043864011765,-0.03612174838781357,-0.03803376853466034
674,463,0.08997199684381485,0.14127328991889954,-999.9865112304688,-0.032424043864011765,-0.03612174838781357,-0.03803376853466034
673,463,0.08997199684381485,0.14127328991889954,-999.9865112304688,-0.032424043864011765,-0.03612174838781357,-0.03803376853466034
676,463,0.08997199684381485,0.14127328991889954,-999.9865112304688,-0.032424043864011765,-0.03612174838781357,-0.03803376853466034
608,463,0.08997199684381485,0.14127328991889954,-999.9865112304688,-0.032424043864011765,-0.03612174838781357,-0.03803376853466034
605,463,0.08997199684381485,0.14127328991889954,-999.9865112304688,-0.032424043864011765,-0.03612174838781357,-0.03803376853466034
604,463,0.08997199684381485,0.14127328991889954,-999.9865112304688,-0.032424043864011765,-0.03612174838781357,-0.03803376853466034
607,463,0.08997199684381485,0.14127328991889954,-999.9865112304688,-0.032424043864011765,-0.03612174838781357,-0.03803376853466034
668,464,-0.15726514160633087,-0.26919785141944885,-1000.023193359375,-0.035972557961940765,0.04673486948013306,0.030282804742455482
685,464,-0.15726514160633087,-0.26919785141944885,-1000.023193359375,-0.035972557961940765,0.04673486948013306,0.030282804742455482
673,464,-0.15726514160633087,-0.26919785141944885,-1000.023193359375,-0.035972557961940765,0.04673486948013306,0.030282804742455482
674,464,-0.15726514160633087,-0.26919785141944885,-1000.023193359375,-0.035972557961940765,0.04673486948013306,0.030282804742455482
599,464,-0.15726514160633087,-0.26919785141944885,-1000.023193359375,-0.035972557961940765,0.04673486948013306,0.030282804742455482
616,464,-0.15726514160633087,-0.26919785141944885,-1000.023193359375,-0.035972557961940765,0.04673486948013306,0.030282804742455482
604,464,-0.15726514160633087,-0.26919785141944885,-1000.023193359375,-0.035972557961940765,0.04673486948013306,0.030282804742455482
605,464,-0.15726514160633087,-0.26919785141944885,-1000.023193359375,-0.035972557961940765,0.04673486948013306,0.030282804742455482
648,465,0.0488596111536026,0.08611250668764114,-1000.0104370117188,0.02491237223148346,0.021233582869172096,-0.030568521469831467
661,465,0.0488596111536026,0.08611250668764114,-1000.0104370117188,0.02491237223148346,0.021233582869172096,-0.030568521469831467
686,465,0.0488596111536026,0.08611250668764114,-1000.0104370117188,0.02491237223148346,0.021233582869172096,-0.030568521469831467
673,465,0.0488596111536026,0.08611250668764114,-1000.0104370117188,0.02491237223148346,0.021233582869172096,-0.030568521469831467
579,465,0.0488596111536026,0.08611250668764114,-1000.0104370117188,0.02491237223148346,0.021233582869172096,-0.030568521469831467
592,465,0.0488596111536026,0.08611250668764114,-1000.0104370117188,0.02491237223148346,0.021233582869172096,-0.030568521469831467
617,465,0.0488596111536026,0.08611250668764114,-1000.0104370117188,0.02491237223148346,0.021233582869172096,-0.030568521469831467
604,465,0.0488596111536026,0.08611250668764114,-1000.0104370117188,0.02491237223148346,0.021233582869172096,-0.030568521469831467
688,466,0.33102622628211975,0.1776902973651886,-999.9579467773438,0.08016776293516159,0.056196633726358414,0.05281214043498039
672,466,0.33102622628211975,0.1776902973651886,-999.9579467773438,0.08016776293516159,0.056196633726358414,0.05281214043498039
652,466,0.33102622628211975,0.1776902973651886,-999.9579467773438,0.08016776293516159,0.056196633726358414,0.05281214043498039
660,466,0.33102622628211975,0.1776902973651886,-999.9579467773438,0.08016776293516159,0.056196633726358414,0.05281214043498039
619,466,0.33102622628211975,0.1776902973651886,-999.9579467773438,0.08016776293516159,0.056196633726358414,0.05281214043498039
603,466,0.33102622628211975,0.1776902973651886,-999.9579467773438,0.08016776293516159,0.056196633726358414,0.05281214043498039
583,466,0.33102622628211975,0.1776902973651886,-999.9579467773438,0.08016776293516159,0.056196633726358414,0.05281214043498039
591,466,0.33102622628211975,0.1776902973651886,-999.9579467773438,0.08016776293516159,0.056196633726358414,0.05281214043498039
682,467,-0.08380332589149475,-0.14892472326755524,-1000.0350341796875,-0.04116358980536461,-0.0873539075255394,0.0426553450524807
677,467,-0.08380332589149475,-0.14892472326755524,-1000.0350341796875,-0.04116358980536461,-0.0873539075255394,0.0426553450524807
656,467,-0.08380332589149475,-0.14892472326755524,-1000.0350341796875,-0.04116358980536461,-0.0873539075255394,0.0426553450524807
670,467,-0.08380332589149475,-0.14892472326755524,-1000.0350341796875,-0.04116358980536461,-0.0873539075255394,0.0426553450524807
613,467,-0.08380332589149475,-0.14892472326755524,-1000.0350341796875,-0.04116358980536461,-0.0873539075255394,0.0426553450524807
608,467,-0.08380332589149475,-0.14892472326755524,-1000.0350341796875,-0.04116358980536461,-0.0873539075255394,0.0426553450524807
587,467,-0.08380332589149475,-0.14892472326755524,-1000.0350341796875,-0.04116358980536461,-0.0873539075255394,0.0426553450524807
601,467,-0.08380332589149475,-0.14892472326755524,-1000.0350341796875,-0.04116358980536461,-0.0873539075255394,0.0426553450524807
656,468,0.17332863807678223,0.10474509000778198,-1000.0018920898438,0.10678944736719131,0.0008552597719244659,0.03189196065068245
671,468,0.17332863807678223,0.10474509000778198,-1000.0018920898438,0.10678944736719131,0.0008552597719244659,0.03189196065068245
679,468,0.17332863807678223,0.10474509000778198,-1000.0018920898438,0.10678944736719131,0.0008552597719244659,0.03189196065068245
680,468,0.17332863807678223,0.10474509000778198,-1000.0018920898438,0.10678944736719131,0.0008552597719244659,0.03189196065068245
587,468,0.17332863807678223,0.10474509000778198,-1000.0018920898438,0.10678944736719131,0.0008552597719244659,0.03189196065068245
602,468,0.17332863807678223,0.10474509000778198,-1000.0018920898438,0.10678944736719131,0.0008552597719244659,0.03189196065068245
610,468,0.17332863807678223,0.10474509000778198,-1000.0018920898438,0.10678944736719131,0.0008552597719244659,0.03189196065068245
611,468,0.17332863807678223,0.10474509000778198,-1000.0018920898438,0.10678944736719131,0.0008552597719244659,0.03189196065068245
663,469,0.0010959540959447622,-0.05317926034331322,-1000.0762939453125,-0.15043967962265015,0.012072009034454823,-0.05300046131014824
644,469,0.0010959540959447622,-0.05317926034331322,-1000.0762939453125,-0.15043967962265015,0.012072009034454823,-0.05300046131014824
683,469,0.0010959540959447622,-0.05317926034331322,-1000.0762939453125,-0.15043967962265015,0.012072009034454823,-0.05300046131014824
666,469,0.0010959540959447622,-0.05317926034331322,-1000.0762939453125,-0.15043967962265015,0.012072009034454823,-0.05300046131014824
594,469,0.0010959540959447622,-0.05317926034331322,-1000.0762939453125,-0.15043967962265015,0.012072009034454823,-0.05300046131014824
575,469,0.0010959540959447622,-0.05317926034331322,-1000.0762939453125,-0.15043967962265015,0.012072009034454823,-0.05300046131014824
614,469,0.0010959540959447622,-0.05317926034331322,-1000.0762939453125,-0.15043967962265015,0.012072009034454823,-0.05300046131014824
597,469,0.0010959540959447622,-0.05317926034331322,-1000.0762939453125,-0.15043967962265015,0.012072009034454823,-0.05300046131014824
690,470,0.11970765888690948,0.2549980878829956,-999.9352416992188,-0.009941230528056622,0.01639331504702568,0.04784438759088516
646,470,0.11970765888690948,0.2549980878829956,-999.9352416992188,-0.009941230528056622,0.01639331504702568,0.04784438759088516
663,470,0.11970765888690948,0.2549980878829956,-999.9352416992188,-0.009941230528056622,0.01639331504702568,0.04784438759088516
666,470,0.11970765888690948,0.2549980878829956,-999.9352416992188,-0.009941230528056622,0.01639331504702568,0.04784438759088516
621,470,0.11970765888690948,0.2549980878829956,-999.9352416992188,-0.009941230528056622,0.01639331504702568,0.04784438759088516
577,470,0.11970765888690948,0.2549980878829956,-999.9352416992188,-0.009941230528056622,0.01639331504702568,0.04784438759088516
594,470,0.11970765888690948,0.2549980878829956,-999.9352416992188,-0.009941230528056622,0.01639331504702568,0.04784438759088516
597,470,0.11970765888690948,0.2549980878829956,-999.9352416992188,-0.009941230528056622,0.01639331504702568,0.04784438759088516
650,471,0.15569338202476501,0.13044396042823792,-999.9754638671875,0.019288666546344757,0.03349440172314644,-0.02160610817372799
651,471,0.15569338202476501,0.13044396042823792,-999.9754638671875,0.019288666546344757,0.03349440172314644,-0.02160610817372799
687,471,0.15569338202476501,0.13044396042823792,-999.9754638671875,0.019288666546344757,0.03349440172314644,-0.02160610817372799
665,471,0.15569338202476501,0.13044396042823792,-999.9754638671875,0.019288666546344757,0.03349440172314644,-0.02160610817372799
581,471,0.15569338202476501,0.13044396042823792,-999.9754638671875,0.019288666546344757,0.03349440172314644,-0.02160610817372799
582,471,0.15569338202476501,0.13044396042823792,-999.9754638671875,0.019288666546344757,0.03349440172314644,-0.02160610817372799
618,471,0.15569338202476501,0.13044396042823792,-999.9754638671875,0.019288666546344757,0.03349440172314644,-0.02160610817372799
596,471,0.15569338202476501,0.13044396042823792,-999.9754638671875,0.019288666546344757,0.03349440172314644,-0.02160610817372799
635,472,-0.08825358003377914,-0.19324328005313873,-999.9992065429688,0.0764743983745575,-0.0025064332876354456,-0.0056230355985462666
644,472,-0.08825358003377914,-0.19324328005313873,-999.9992065429688,0.0764743983745575,-0.0025064332876354456,-0.0056230355985462666
663,472,-0.08825358003377914,-0.19324328005313873,-999.9992065429688,0.0764743983745575,-0.0025064332876354456,-0.0056230355985462666
643,472,-0.08825358003377914,-0.19324328005313873,-999.9992065429688,0.0764743983745575,-0.0025064332876354456,-0.0056230355985462666
566,472,-0.08825358003377914,-0.19324328005313873,-999.9992065429688,0.0764743983745575,-0.0025064332876354456,-0.0056230355985462666
575,472,-0.08825358003377914,-0.19324328005313873,-999.9992065429688,0.0764743983745575,-0.0025064332876354456,-0.0056230355985462666
594,472,-0.08825358003377914,-0.19324328005313873,-999.9992065429688,0.0764743983745575,-0.0025064332876354456,-0.0056230355985462666
574,472,-0.08825358003377914,-0.19324328005313873,-999.9992065429688,0.0764743983745575,-0.0025064332876354456,-0.0056230355985462666
632,473,-0.08323575556278229,-0.2538909912109375,-1000.0078125,-0.03532746434211731,0.006915793288499117,0.0032156261149793863
678,473,-0.08323575556278229,-0.2538909912109375,-1000.0078125,-0.03532746434211731,0.006915793288499117,0.0032156261149793863
647,473,-0.08323575556278229,-0.2538909912109375,-1000.0078125,-0.03532746434211731,0.006915793288499117,0.0032156261149793863
642,473,-0.08323575556278229,-0.2538909912109375,-1000.0078125,-0.03532746434211731,0.006915793288499117,0.0032156261149793863
563,473,-0.08323575556278229,-0.2538909912109375,-1000.0078125,-0.03532746434211731,0.006915793288499117,0.0032156261149793863
609,473,-0.08323575556278229,-0.2538909912109375,-1000.0078125,-0.03532746434211731,0.006915793288499117,0.0032156261149793863
578,473,-0.08323575556278229,-0.2538909912109375,-1000.0078125,-0.03532746434211731,0.006915793288499117,0.0032156261149793863
573,473,-0.08323575556278229,-0.2538909912109375,-1000.0078125,-0.03532746434211731,0.006915793288499117,0.0032156261149793863
648,474,-0.08068879693746567,-0.004452045541256666,-1000.0045776367188,-0.026176512241363525,-0.0005415356135927141,0.005152893718332052
631,474,-0.08068879693746567,-0.004452045541256666,-1000.0045776367188,-0.026176512241363525,-0.0005415356135927141,0.005152893718332052
641,474,-0.08068879693746567,-0.004452045541256666,-1000.0045776367188,-0.026176512241363525,-0.0005415356135927141,0.005152893718332052
661,474,-0.08068879693746567,-0.004452045541256666,-1000.0045776367188,-0.026176512241363525,-0.0005415356135927141,0.005152893718332052
579,474,-0.08068879693746567,-0.004452045541256666,-1000.0045776367188,-0.026176512241363525,-0.0005415356135927141,0.005152893718332052
562,474,-0.08068879693746567,-0.004452045541256666,-1000.0045776367188,-0.026176512241363525,-0.0005415356135927141,0.005152893718332052
572,474,-0.08068879693746567,-0.004452045541256666,-1000.0045776367188,-0.026176512241363525,-0.0005415356135927141,0.005152893718332052
592,474,-0.08068879693746567,-0.004452045541256666,-1000.0045776367188,-0.026176512241363525,-0.0005415356135927141,0.005152893718332052
649,475,-0.042510539293289185,-0.02441543899476528,-999.9944458007812,-0.007654791232198477,-0.0022167384158819914,0.0010303755989298224
637,475,-0.042510539293289185,-0.02441543899476528,-999.9944458007812,-0.007654791232198477,-0.0022167384158819914,0.0010303755989298224
636,475,-0.042510539293289185,-0.02441543899476528,-999.9944458007812,-0.007654791232198477,-0.0022167384158819914,0.0010303755989298224
646,475,-0.042510539293289185,-0.02441543899476528,-999.9944458007812,-0.007654791232198477,-0.0022167384158819914,0.0010303755989298224
580,475,-0.042510539293289185,-0.02441543899476528,-999.9944458007812,-0.007654791232198477,-0.0022167384158819914,0.0010303755989298224
568,475,-0.042510539293289185,-0.02441543899476528,-999.9944458007812,-0.007654791232198477,-0.0022167384158819914,0.0010303755989298224
567,475,-0.042510539293289185,-0.02441543899476528,-999.9944458007812,-0.007654791232198477,-0.0022167384158819914,0.0010303755989298224
577,475,-0.042510539293289185,-0.02441543899476528,-999.9944458007812,-0.007654791232198477,-0.0022167384158819914,0.0010303755989298224
661,476,-0.04081535339355469,-0.0058083427138626575,-999.9932250976562,0.006726936437189579,0.0022093355655670166,-0.002605744171887636
641,476,-0.04081535339355469,-0.0058083427138626575,-999.9932250976562,0.006726936437189579,0.0022093355655670166,-0.002605744171887636
630,476,-0.04081535339355469,-0.0058083427138626575,-999.9932250976562,0.006726936437189579,0.0022093355655670166,-0.002605744171887636
650,476,-0.04081535339355469,-0.0058083427138626575,-999.9932250976562,0.006726936437189579,0.0022093355655670166,-0.002605744171887636
592,476,-0.04081535339355469,-0.0058083427138626575,-999.9932250976562,0.006726936437189579,0.0022093355655670166,-0.002605744171887636
572,476,-0.04081535339355469,-0.0058083427138626575,-999.9932250976562,0.006726936437189579,0.0022093355655670166,-0.002605744171887636
561,476,-0.04081535339355469,-0.0058083427138626575,-999.9932250976562,0.006726936437189579,0.0022093355655670166,-0.002605744171887636
581,476,-0.04081535339355469,-0.0058083427138626575,-999.9932250976562,0.006726936437189579,0.0022093355655670166,-0.002605744171887636
685,477,0.1051676794886589,0.08393017202615738,-999.9732055664062,0.09935511648654938,-0.009367472492158413,0.011914567090570927
678,477,0.1051676794886589,0.08393017202615738,-999.9732055664062,0.09935511648654938,-0.009367472492158413,0.011914567090570927
648,477,0.1051676794886589,0.08393017202615738,-999.9732055664062,0.09935511648654938,-0.009367472492158413,0.011914567090570927
673,477,0.1051676794886589,0.08393017202615738,-999.9732055664062,0.09935511648654938,-0.009367472492158413,0.011914567090570927
616,477,0.1051676794886589,0.08393017202615738,-999.9732055664062,0.09935511648654938,-0.009367472492158413,0.011914567090570927
609,477,0.1051676794886589,0.08393017202615738,-999.9732055664062,0.09935511648654938,-0.009367472492158413,0.011914567090570927
579,477,0.1051676794886589,0.08393017202615738,-999.9732055664062,0.09935511648654938,-0.009367472492158413,0.011914567090570927
604,477,0.1051676794886589,0.08393017202615738,-999.9732055664062,0.09935511648654938,-0.009367472492158413,0.011914567090570927
650,478,-0.08974167704582214,0.0035579903051257133,-1000.0086059570312,0.023294387385249138,0.0032714740373194218,0.01043916679918766
630,478,-0.08974167704582214,0.0035579903051257133,-1000.0086059570312,0.023294387385249138,0.0032714740373194218,0.01043916679918766
629,478,-0.08974167704582214,0.0035579903051257133,-1000.0086059570312,0.023294387385249138,0.0032714740373194218,0.01043916679918766
651,478,-0.08974167704582214,0.0035579903051257133,-1000.0086059570312,0.023294387385249138,0.0032714740373194218,0.01043916679918766
581,478,-0.08974167704582214,0.0035579903051257133,-1000.0086059570312,0.023294387385249138,0.0032714740373194218,0.01043916679918766
561,478,-0.08974167704582214,0.0035579903051257133,-1000.0086059570312,0.023294387385249138,0.0032714740373194218,0.01043916679918766
560,478,-0.08974167704582214,0.0035579903051257133,-1000.0086059570312,0.023294387385249138,0.0032714740373194218,0.01043916679918766
582,478,-0.08974167704582214,0.0035579903051257133,-1000.0086059570312,0.023294387385249138,0.0032714740373194218,0.01043916679918766
651,479,-0.15524636209011078,-0.060635875910520554,-999.9905395507812,-0.018877709284424782,0.005932401865720749,-0.007775213569402695
629,479,-0.15524636209011078,-0.060635875910520554,-999.9905395507812,-0.018877709284424782,0.005932401865720749,-0.007775213569402695
628,479,-0.15524636209011078,-0.060635875910520554,-999.9905395507812,-0.018877709284424782,0.005932401865720749,-0.007775213569402695
652,479,-0.15524636209011078,-0.060635875910520554,-999.9905395507812,-0.018877709284424782,0.005932401865720749,-0.007775213569402695
582,479,-0.15524636209011078,-0.060635875910520554,-999.9905395507812,-0.018877709284424782,0.005932401865720749,-0.007775213569402695
560,479,-0.15524636209011078,-0.060635875910520554,-999.9905395507812,-0.018877709284424782,0.005932401865720749,-0.007775213569402695
559,479,-0.15524636209011078,-0.060635875910520554,-999.9905395507812,-0.018877709284424782,0.005932401865720749,-0.007775213569402695
583,479,-0.15524636209011078,-0.060635875910520554,-999.9905395507812,-0.018877709284424782,0.005932401865720749,-0.007775213569402695
682,480,0.03972295671701431,-0.12601473927497864,-999.9755249023438,-0.024643797427415848,-0.0005847556749358773,-0.06114896759390831
670,480,0.03972295671701431,-0.12601473927497864,-999.9755249023438,-0.024643797427415848,-0.0005847556749358773,-0.06114896759390831
681,480,0.03972295671701431,-0.12601473927497864,-999.9755249023438,-0.024643797427415848,-0.0005847556749358773,-0.06114896759390831
675,480,0.03972295671701431,-0.12601473927497864,-999.9755249023438,-0.024643797427415848,-0.0005847556749358773,-0.06114896759390831
613,480,0.03972295671701431,-0.12601473927497864,-999.9755249023438,-0.024643797427415848,-0.0005847556749358773,-0.06114896759390831
601,480,0.03972295671701431,-0.12601473927497864,-999.9755249023438,-0.024643797427415848,-0.0005847556749358773,-0.06114896759390831
612,480,0.03972295671701431,-0.12601473927497864,-999.9755249023438,-0.024643797427415848,-0.0005847556749358773,-0.06114896759390831
606,480,0.03972295671701431,-0.12601473927497864,-999.9755249023438,-0.024643797427415848,-0.0005847556749358773,-0.06114896759390831
637,481,-0.0552629716694355,-0.014836099930107594,-1000.0051879882812,-0.05533110350370407,-0.00223850691691041,0.007603316102176905
649,481,-0.0552629716694355,-0.014836099930107594,-1000.0051879882812,-0.05533110350370407,-0.00223850691691041,0.007603316102176905
657,481,-0.0552629716694355,-0.014836099930107594,-1000.0051879882812,-0.05533110350370407,-0.00223850691691041,0.007603316102176905
622,481,-0.0552629716694355,-0.014836099930107594,-1000.0051879882812,-0.05533110350370407,-0.00223850691691041,0.007603316102176905
568,481,-0.0552629716694355,-0.014836099930107594,-1000.0051879882812,-0.05533110350370407,-0.00223850691691041,0.007603316102176905
580,481,-0.0552629716694355,-0.014836099930107594,-1000.0051879882812,-0.05533110350370407,-0.00223850691691041,0.007603316102176905
588,481,-0.0552629716694355,-0.014836099930107594,-1000.0051879882812,-0.05533110350370407,-0.00223850691691041,0.007603316102176905
553,481,-0.0552629716694355,-0.014836099930107594,-1000.0051879882812,-0.05533110350370407,-0.00223850691691041,0.007603316102176905
652,482,-0.10019110143184662,0.014980819076299667,-1000.0109252929688,0.006272088270634413,-0.002580755390226841,-0.004619268234819174
628,482,-0.10019110143184662,0.014980819076299667,-1000.0109252929688,0.006272088270634413,-0.002580755390226841,-0.004619268234819174
640,482,-0.10019110143184662,0.014980819076299667,-1000.0109252929688,0.006272088270634413,-0.002580755390226841,-0.004619268234819174
660,482,-0.10019110143184662,0.014980819076299667,-1000.0109252929688,0.006272088270634413,-0.002580755390226841,-0.004619268234819174
583,482,-0.10019110143184662,0.014980819076299667,-1000.0109252929688,0.006272088270634413,-0.002580755390226841,-0.004619268234819174
559,482,-0.10019110143184662,0.014980819076299667,-1000.0109252929688,0.006272088270634413,-0.002580755390226841,-0.004619268234819174
571,482,-0.10019110143184662,0.014980819076299667,-1000.0109252929688,0.006272088270634413,-0.002580755390226841,-0.004619268234819174
591,482,-0.10019110143184662,0.014980819076299667,-1000.0109252929688,0.006272088270634413,-0.002580755390226841,-0.004619268234819174
660,483,-0.12327191233634949,-0.07995066046714783,-999.9898071289062,0.04371984302997589,0.008962064050137997,-0.0041664415039122105
640,483,-0.12327191233634949,-0.07995066046714783,-999.9898071289062,0.04371984302997589,0.008962064050137997,-0.0041664415039122105
627,483,-0.12327191233634949,-0.07995066046714783,-999.9898071289062,0.04371984302997589,0.008962064050137997,-0.0041664415039122105
653,483,-0.12327191233634949,-0.07995066046714783,-999.9898071289062,0.04371984302997589,0.008962064050137997,-0.0041664415039122105
591,483,-0.12327191233634949,-0.07995066046714783,-999.9898071289062,0.04371984302997589,0.008962064050137997,-0.0041664415039122105
571,483,-0.12327191233634949,-0.07995066046714783,-999.9898071289062,0.04371984302997589,0.008962064050137997,-0.0041664415039122105
558,483,-0.12327191233634949,-0.07995066046714783,-999.9898071289062,0.04371984302997589,0.008962064050137997,-0.0041664415039122105
584,483,-0.12327191233634949,-0.07995066046714783,-999.9898071289062,0.04371984302997589,0.008962064050137997,-0.0041664415039122105
653,484,-0.06406465917825699,-0.13067229092121124,-1000.0115356445312,0.05140567943453789,-0.004084303975105286,0.006407682318240404
627,484,-0.06406465917825699,-0.13067229092121124,-1000.0115356445312,0.05140567943453789,-0.004084303975105286,0.006407682318240404
626,484,-0.06406465917825699,-0.13067229092121124,-1000.0115356445312,0.05140567943453789,-0.004084303975105286,0.006407682318240404
654,484,-0.06406465917825699,-0.13067229092121124,-1000.0115356445312,0.05140567943453789,-0.004084303975105286,0.006407682318240404
584,484,-0.06406465917825699,-0.13067229092121124,-1000.0115356445312,0.05140567943453789,-0.004084303975105286,0.006407682318240404
558,484,-0.06406465917825699,-0.13067229092121124,-1000.0115356445312,0.05140567943453789,-0.004084303975105286,0.006407682318240404
557,484,-0.06406465917825699,-0.13067229092121124,-1000.0115356445312,0.05140567943453789,-0.004084303975105286,0.006407682318240404
585,484,-0.06406465917825699,-0.13067229092121124,-1000.0115356445312,0.05140567943453789,-0.004084303975105286,0.006407682318240404
654,485,-0.013082864694297314,-0.07807741314172745,-999.9905395507812,-0.0036076258402317762,0.011817251332104206,-0.008435406722128391
626,485,-0.013082864694297314,-0.07807741314172745,-999.9905395507812,-0.0036076258402317762,0.011817251332104206,-0.008435406722128391
639,485,-0.013082864694297314,-0.07807741314172745,-999.9905395507812,-0.0036076258402317762,0.011817251332104206,-0.008435406722128391
659,485,-0.013082864694297314,-0.07807741314172745,-999.9905395507812,-0.0036076258402317762,0.011817251332104206,-0.008435406722128391
585,485,-0.013082864694297314,-0.07807741314172745,-999.9905395507812,-0.0036076258402317762,0.011817251332104206,-0.008435406722128391
557,485,-0.013082864694297314,-0.07807741314172745,-999.9905395507812,-0.0036076258402317762,0.011817251332104206,-0.008435406722128391
570,485,-0.013082864694297314,-0.07807741314172745,-999.9905395507812,-0.0036076258402317762,0.011817251332104206,-0.008435406722128391
590,485,-0.013082864694297314,-0.07807741314172745,-999.9905395507812,-0.0036076258402317762,0.011817251332104206,-0.008435406722128391
659,486,-0.015073748305439949,-0.06417485326528549,-1000.0062866210938,-0.017589980736374855,-0.016997285187244415,0.0007958259084261954
639,486,-0.015073748305439949,-0.06417485326528549,-1000.0062866210938,-0.017589980736374855,-0.016997285187244415,0.0007958259084261954
625,486,-0.015073748305439949,-0.06417485326528549,-1000.0062866210938,-0.017589980736374855,-0.016997285187244415,0.0007958259084261954
655,486,-0.015073748305439949,-0.06417485326528549,-1000.0062866210938,-0.017589980736374855,-0.016997285187244415,0.0007958259084261954
590,486,-0.015073748305439949,-0.06417485326528549,-1000.0062866210938,-0.017589980736374855,-0.016997285187244415,0.0007958259084261954
570,486,-0.015073748305439949,-0.06417485326528549,-1000.0062866210938,-0.017589980736374855,-0.016997285187244415,0.0007958259084261954
556,486,-0.015073748305439949,-0.06417485326528549,-1000.0062866210938,-0.017589980736374855,-0.016997285187244415,0.0007958259084261954
586,486,-0.015073748305439949,-0.06417485326528549,-1000.0062866210938,-0.017589980736374855,-0.016997285187244415,0.0007958259084261954
679,487,-0.20023570954799652,-0.21133118867874146,-1000.004150390625,-0.08470013737678528,-0.009172420017421246,-0.011493881233036518
624,487,-0.20023570954799652,-0.21133118867874146,-1000.004150390625,-0.08470013737678528,-0.009172420017421246,-0.011493881233036518
623,487,-0.20023570954799652,-0.21133118867874146,-1000.004150390625,-0.08470013737678528,-0.009172420017421246,-0.011493881233036518
680,487,-0.20023570954799652,-0.21133118867874146,-1000.004150390625,-0.08470013737678528,-0.009172420017421246,-0.011493881233036518
610,487,-0.20023570954799652,-0.21133118867874146,-1000.004150390625,-0.08470013737678528,-0.009172420017421246,-0.011493881233036518
555,487,-0.20023570954799652,-0.21133118867874146,-1000.004150390625,-0.08470013737678528,-0.009172420017421246,-0.011493881233036518
554,487,-0.20023570954799652,-0.21133118867874146,-1000.004150390625,-0.08470013737678528,-0.009172420017421246,-0.011493881233036518
611,487,-0.20023570954799652,-0.21133118867874146,-1000.004150390625,-0.08470013737678528,-0.009172420017421246,-0.011493881233036518
658,488,-0.0039539700374007225,-0.05532299727201462,-999.9962768554688,-0.013578984886407852,-0.0037580954376608133,-0.0025066244415938854
638,488,-0.0039539700374007225,-0.05532299727201462,-999.9962768554688,-0.013578984886407852,-0.0037580954376608133,-0.0025066244415938854
622,488,-0.0039539700374007225,-0.05532299727201462,-999.9962768554688,-0.013578984886407852,-0.0037580954376608133,-0.0025066244415938854
657,488,-0.0039539700374007225,-0.05532299727201462,-999.9962768554688,-0.013578984886407852,-0.0037580954376608133,-0.0025066244415938854
589,488,-0.0039539700374007225,-0.05532299727201462,-999.9962768554688,-0.013578984886407852,-0.0037580954376608133,-0.0025066244415938854
569,488,-0.0039539700374007225,-0.05532299727201462,-999.9962768554688,-0.013578984886407852,-0.0037580954376608133,-0.0025066244415938854
553,488,-0.0039539700374007225,-0.05532299727201462,-999.9962768554688,-0.013578984886407852,-0.0037580954376608133,-0.0025066244415938854
588,488,-0.0039539700374007225,-0.05532299727201462,-999.9962768554688,-0.013578984886407852,-0.0037580954376608133,-0.0025066244415938854
681,489,0.21682262420654297,0.32395997643470764,-999.9332275390625,0.053527820855379105,-0.01636422425508499,-0.019983550533652306
657,489,0.21682262420654297,0.32395997643470764,-999.9332275390625,0.053527820855379105,-0.01636422425508499,-0.019983550533652306
649,489,0.21682262420654297,0.32395997643470764,-999.9332275390625,0.053527820855379105,-0.01636422425508499,-0.019983550533652306
664,489,0.21682262420654297,0.32395997643470764,-999.9332275390625,0.053527820855379105,-0.01636422425508499,-0.019983550533652306
612,489,0.21682262420654297,0.32395997643470764,-999.9332275390625,0.053527820855379105,-0.01636422425508499,-0.019983550533652306
588,489,0.21682262420654297,0.32395997643470764,-999.9332275390625,0.053527820855379105,-0.01636422425508499,-0.019983550533652306
580,489,0.21682262420654297,0.32395997643470764,-999.9332275390625,0.053527820855379105,-0.01636422425508499,-0.019983550533652306
595,489,0.21682262420654297,0.32395997643470764,-999.9332275390625,0.053527820855379105,-0.01636422425508499,-0.019983550533652306
680,490,0.10620303452014923,0.2539796531200409,-999.9671630859375,0.03218679502606392,0.0291364137083292,-0.01042696088552475
658,490,0.10620303452014923,0.2539796531200409,-999.9671630859375,0.03218679502606392,0.0291364137083292,-0.01042696088552475
670,490,0.10620303452014923,0.2539796531200409,-999.9671630859375,0.03218679502606392,0.0291364137083292,-0.01042696088552475
656,490,0.10620303452014923,0.2539796531200409,-999.9671630859375,0.03218679502606392,0.0291364137083292,-0.01042696088552475
611,490,0.10620303452014923,0.2539796531200409,-999.9671630859375,0.03218679502606392,0.0291364137083292,-0.01042696088552475
589,490,0.10620303452014923,0.2539796531200409,-999.9671630859375,0.03218679502606392,0.0291364137083292,-0.01042696088552475
601,490,0.10620303452014923,0.2539796531200409,-999.9671630859375,0.03218679502606392,0.0291364137083292,-0.01042696088552475
587,490,0.10620303452014923,0.2539796531200409,-999.9671630859375,0.03218679502606392,0.0291364137083292,-0.01042696088552475
655,491,-0.10681451857089996,-0.14133237302303314,-1000.0003051757812,-0.10094679147005081,0.01810135692358017,-0.009794242680072784
625,491,-0.10681451857089996,-0.14133237302303314,-1000.0003051757812,-0.10094679147005081,0.01810135692358017,-0.009794242680072784
624,491,-0.10681451857089996,-0.14133237302303314,-1000.0003051757812,-0.10094679147005081,0.01810135692358017,-0.009794242680072784
679,491,-0.10681451857089996,-0.14133237302303314,-1000.0003051757812,-0.10094679147005081,0.01810135692358017,-0.009794242680072784
586,491,-0.10681451857089996,-0.14133237302303314,-1000.0003051757812,-0.10094679147005081,0.01810135692358017,-0.009794242680072784
556,491,-0.10681451857089996,-0.14133237302303314,-1000.0003051757812,-0.10094679147005081,0.01810135692358017,-0.009794242680072784
555,491,-0.10681451857089996,-0.14133237302303314,-1000.0003051757812,-0.10094679147005081,0.01810135692358017,-0.009794242680072784
610,491,-0.10681451857089996,-0.14133237302303314,-1000.0003051757812,-0.10094679147005081,0.01810135692358017,-0.009794242680072784
664,492,-0.037503667175769806,-0.27485159039497375,-1000.0717163085938,0.009676807560026646,0.05192313715815544,-0.043136484920978546
649,492,-0.037503667175769806,-0.27485159039497375,-1000.0717163085938,0.009676807560026646,0.05192313715815544,-0.043136484920978546
646,492,-0.037503667175769806,-0.27485159039497375,-1000.0717163085938,0.009676807560026646,0.05192313715815544,-0.043136484920978546
690,492,-0.037503667175769806,-0.27485159039497375,-1000.0717163085938,0.009676807560026646,0.05192313715815544,-0.043136484920978546
595,492,-0.037503667175769806,-0.27485159039497375,-1000.0717163085938,0.009676807560026646,0.05192313715815544,-0.043136484920978546
580,492,-0.037503667175769806,-0.27485159039497375,-1000.0717163085938,0.009676807560026646,0.05192313715815544,-0.043136484920978546
577,492,-0.037503667175769806,-0.27485159039497375,-1000.0717163085938,0.009676807560026646,0.05192313715815544,-0.043136484920978546
621,492,-0.037503667175769806,-0.27485159039497375,-1000.0717163085938,0.009676807560026646,0.05192313715815544,-0.043136484920978546
675,493,0.043029800057411194,0.09661295264959335,-999.9894409179688,0.09509970247745514,-0.010771183297038078,-0.050654828548431396
690,493,0.043029800057411194,0.09661295264959335,-999.9894409179688,0.09509970247745514,-0.010771183297038078,-0.050654828548431396
666,493,0.043029800057411194,0.09661295264959335,-999.9894409179688,0.09509970247745514,-0.010771183297038078,-0.050654828548431396
674,493,0.043029800057411194,0.09661295264959335,-999.9894409179688,0.09509970247745514,-0.010771183297038078,-0.050654828548431396
606,493,0.043029800057411194,0.09661295264959335,-999.9894409179688,0.09509970247745514,-0.010771183297038078,-0.050654828548431396
621,493,0.043029800057411194,0.09661295264959335,-999.9894409179688,0.09509970247745514,-0.010771183297038078,-0.050654828548431396
597,493,0.043029800057411194,0.09661295264959335,-999.9894409179688,0.09509970247745514,-0.010771183297038078,-0.050654828548431396
605,493,0.043029800057411194,0.09661295264959335,-999.9894409179688,0.09509970247745514,-0.010771183297038078,-0.050654828548431396
645,494,-0.02748100273311138,0.13832178711891174,-1000.0767822265625,-0.07424726337194443,0.006106345448642969,-0.07340347021818161
662,494,-0.02748100273311138,0.13832178711891174,-1000.0767822265625,-0.07424726337194443,0.006106345448642969,-0.07340347021818161
684,494,-0.02748100273311138,0.13832178711891174,-1000.0767822265625,-0.07424726337194443,0.006106345448642969,-0.07340347021818161
669,494,-0.02748100273311138,0.13832178711891174,-1000.0767822265625,-0.07424726337194443,0.006106345448642969,-0.07340347021818161
576,494,-0.02748100273311138,0.13832178711891174,-1000.0767822265625,-0.07424726337194443,0.006106345448642969,-0.07340347021818161
593,494,-0.02748100273311138,0.13832178711891174,-1000.0767822265625,-0.07424726337194443,0.006106345448642969,-0.07340347021818161
615,494,-0.02748100273311138,0.13832178711891174,-1000.0767822265625,-0.07424726337194443,0.006106345448642969,-0.07340347021818161
600,494,-0.02748100273311138,0.13832178711891174,-1000.0767822265625,-0.07424726337194443,0.006106345448642969,-0.07340347021818161
669,495,0.027265701442956924,-0.22836464643478394,-1000.0047607421875,-0.016050949692726135,-0.016253020614385605,0.07781706005334854
684,495,0.027265701442956924,-0.22836464643478394,-1000.0047607421875,-0.016050949692726135,-0.016253020614385605,0.07781706005334854
668,495,0.027265701442956924,-0.22836464643478394,-1000.0047607421875,-0.016050949692726135,-0.016253020614385605,0.07781706005334854
674,495,0.027265701442956924,-0.22836464643478394,-1000.0047607421875,-0.016050949692726135,-0.016253020614385605,0.07781706005334854
600,495,0.027265701442956924,-0.22836464643478394,-1000.0047607421875,-0.016050949692726135,-0.016253020614385605,0.07781706005334854
615,495,0.027265701442956924,-0.22836464643478394,-1000.0047607421875,-0.016050949692726135,-0.016253020614385605,0.07781706005334854
599,495,0.027265701442956924,-0.22836464643478394,-1000.0047607421875,-0.016050949692726135,-0.016253020614385605,0.07781706005334854
605,495,0.027265701442956924,-0.22836464643478394,-1000.0047607421875,-0.016050949692726135,-0.016253020614385605,0.07781706005334854
671,496,0.18008509278297424,0.19738702476024628,-999.9827270507812,0.08057809621095657,0.007415472995489836,0.014265509322285652
659,496,0.18008509278297424,0.19738702476024628,-999.9827270507812,0.08057809621095657,0.007415472995489836,0.014265509322285652
655,496,0.18008509278297424,0.19738702476024628,-999.9827270507812,0.08057809621095657,0.007415472995489836,0.014265509322285652
679,496,0.18008509278297424,0.19738702476024628,-999.9827270507812,0.08057809621095657,0.007415472995489836,0.014265509322285652
602,496,0.18008509278297424,0.19738702476024628,-999.9827270507812,0.08057809621095657,0.007415472995489836,0.014265509322285652
590,496,0.18008509278297424,0.19738702476024628,-999.9827270507812,0.08057809621095657,0.007415472995489836,0.014265509322285652
586,496,0.18008509278297424,0.19738702476024628,-999.9827270507812,0.08057809621095657,0.007415472995489836,0.014265509322285652
610,496,0.18008509278297424,0.19738702476024628,-999.9827270507812,0.08057809621095657,0.007415472995489836,0.014265509322285652
669,497,-0.13509368896484375,-0.25662264227867126,-1000.021728515625,0.03224640339612961,-0.06046381965279579,0.0010108090937137604
674,497,-0.13509368896484375,-0.25662264227867126,-1000.021728515625,0.03224640339612961,-0.06046381965279579,0.0010108090937137604
666,497,-0.13509368896484375,-0.25662264227867126,-1000.021728515625,0.03224640339612961,-0.06046381965279579,0.0010108090937137604
683,497,-0.13509368896484375,-0.25662264227867126,-1000.021728515625,0.03224640339612961,-0.06046381965279579,0.0010108090937137604
600,497,-0.13509368896484375,-0.25662264227867126,-1000.021728515625,0.03224640339612961,-0.06046381965279579,0.0010108090937137604
605,497,-0.13509368896484375,-0.25662264227867126,-1000.021728515625,0.03224640339612961,-0.06046381965279579,0.0010108090937137604
597,497,-0.13509368896484375,-0.25662264227867126,-1000.021728515625,0.03224640339612961,-0.06046381965279579,0.0010108090937137604
614,497,-0.13509368896484375,-0.25662264227867126,-1000.021728515625,0.03224640339612961,-0.06046381965279579,0.0010108090937137604
647,498,0.06254050880670547,0.33895552158355713,-1000.0243530273438,-0.017560241743922234,-0.0357854999601841,-0.043477315455675125
678,498,0.06254050880670547,0.33895552158355713,-1000.0243530273438,-0.017560241743922234,-0.0357854999601841,-0.043477315455675125
685,498,0.06254050880670547,0.33895552158355713,-1000.0243530273438,-0.017560241743922234,-0.0357854999601841,-0.043477315455675125
668,498,0.06254050880670547,0.33895552158355713,-1000.0243530273438,-0.017560241743922234,-0.0357854999601841,-0.043477315455675125
578,498,0.06254050880670547,0.33895552158355713,-1000.0243530273438,-0.017560241743922234,-0.0357854999601841,-0.043477315455675125
609,498,0.06254050880670547,0.33895552158355713,-1000.0243530273438,-0.017560241743922234,-0.0357854999601841,-0.043477315455675125
616,498,0.06254050880670547,0.33895552158355713,-1000.0243530273438,-0.017560241743922234,-0.0357854999601841,-0.043477315455675125
599,498,0.06254050880670547,0.33895552158355713,-1000.0243530273438,-0.017560241743922234,-0.0357854999601841,-0.043477315455675125
689,499,-0.16218478977680206,-0.16416625678539276,-999.9988403320312,-0.05735356733202934,0.020509041845798492,-0.06174749508500099
671,499,-0.16218478977680206,-0.16416625678539276,-999.9988403320312,-0.05735356733202934,0.020509041845798492,-0.06174749508500099
656,499,-0.16218478977680206,-0.16416625678539276,-999.9988403320312,-0.05735356733202934,0.020509041845798492,-0.06174749508500099
677,499,-0.16218478977680206,-0.16416625678539276,-999.9988403320312,-0.05735356733202934,0.020509041845798492,-0.06174749508500099
620,499,-0.16218478977680206,-0.16416625678539276,-999.9988403320312,-0.05735356733202934,0.020509041845798492,-0.06174749508500099
602,499,-0.16218478977680206,-0.16416625678539276,-999.9988403320312,-0.05735356733202934,0.020509041845798492,-0.06174749508500099
587,499,-0.16218478977680206,-0.16416625678539276,-999.9988403320312,-0.05735356733202934,0.020509041845798492,-0.06174749508500099
608,499,-0.16218478977680206,-0.16416625678539276,-999.9988403320312,-0.05735356733202934,0.020509041845798492,-0.06174749508500099
665,500,-0.21117641031742096,0.031039133667945862,-1000.0042724609375,-0.00021070185175631195,0.04808511957526207,0.029063750058412552
687,500,-0.21117641031742096,0.031039133667945862,-1000.0042724609375,-0.00021070185175631195,0.04808511957526207,0.029063750058412552
672,500,-0.21117641031742096,0.031039133667945862,-1000.0042724609375,-0.00021070185175631195,0.04808511957526207,0.029063750058412552
676,500,-0.21117641031742096,0.031039133667945862,-1000.0042724609375,-0.00021070185175631195,0.04808511957526207,0.029063750058412552
596,500,-0.21117641031742096,0.031039133667945862,-1000.0042724609375,-0.00021070185175631195,0.04808511957526207,0.029063750058412552
618,500,-0.21117641031742096,0.031039133667945862,-1000.0042724609375,-0.00021070185175631195,0.04808511957526207,0.029063750058412552
603,500,-0.21117641031742096,0.031039133667945862,-1000.0042724609375,-0.00021070185175631195,0.04808511957526207,0.029063750058412552
607,500,-0.21117641031742096,0.031039133667945862,-1000.0042724609375,-0.00021070185175631195,0.04808511957526207,0.029063750058412552
688,501,-0.07449562847614288,-0.05513468757271767,-1000.0340576171875,-0.15405362844467163,-0.06280873715877533,0.0017767363460734487
660,501,-0.07449562847614288,-0.05513468757271767,-1000.0340576171875,-0.15405362844467163,-0.06280873715877533,0.0017767363460734487
653,501,-0.07449562847614288,-0.05513468757271767,-1000.0340576171875,-0.15405362844467163,-0.06280873715877533,0.0017767363460734487
667,501,-0.07449562847614288,-0.05513468757271767,-1000.0340576171875,-0.15405362844467163,-0.06280873715877533,0.0017767363460734487
619,501,-0.07449562847614288,-0.05513468757271767,-1000.0340576171875,-0.15405362844467163,-0.06280873715877533,0.0017767363460734487
591,501,-0.07449562847614288,-0.05513468757271767,-1000.0340576171875,-0.15405362844467163,-0.06280873715877533,0.0017767363460734487
584,501,-0.07449562847614288,-0.05513468757271767,-1000.0340576171875,-0.15405362844467163,-0.06280873715877533,0.0017767363460734487
598,501,-0.07449562847614288,-0.05513468757271767,-1000.0340576171875,-0.15405362844467163,-0.06280873715877533,0.0017767363460734487
677,502,0.09347464889287949,-0.07374909520149231,-1000.0045166015625,0.08527534455060959,0.0044995080679655075,0.05544291436672211
676,502,0.09347464889287949,-0.07374909520149231,-1000.0045166015625,0.08527534455060959,0.0044995080679655075,0.05544291436672211
667,502,0.09347464889287949,-0.07374909520149231,-1000.0045166015625,0.08527534455060959,0.0044995080679655075,0.05544291436672211
689,502,0.09347464889287949,-0.07374909520149231,-1000.0045166015625,0.08527534455060959,0.0044995080679655075,0.05544291436672211
608,502,0.09347464889287949,-0.07374909520149231,-1000.0045166015625,0.08527534455060959,0.0044995080679655075,0.05544291436672211
607,502,0.09347464889287949,-0.07374909520149231,-1000.0045166015625,0.08527534455060959,0.0044995080679655075,0.05544291436672211
598,502,0.09347464889287949,-0.07374909520149231,-1000.0045166015625,0.08527534455060959,0.0044995080679655075,0.05544291436672211
620,502,0.09347464889287949,-0.07374909520149231,-1000.0045166015625,0.08527534455060959,0.0044995080679655075,0.05544291436672211
677,503,0.020180420950055122,0.16175447404384613,-999.9888305664062,0.0009332738700322807,0.09118399024009705,0.037291496992111206
682,503,0.020180420950055122,0.16175447404384613,-999.9888305664062,0.0009332738700322807,0.09118399024009705,0.037291496992111206
675,503,0.020180420950055122,0.16175447404384613,-999.9888305664062,0.0009332738700322807,0.09118399024009705,0.037291496992111206
674,503,0.020180420950055122,0.16175447404384613,-999.9888305664062,0.0009332738700322807,0.09118399024009705,0.037291496992111206
608,503,0.020180420950055122,0.16175447404384613,-999.9888305664062,0.0009332738700322807,0.09118399024009705,0.037291496992111206
613,503,0.020180420950055122,0.16175447404384613,-999.9888305664062,0.0009332738700322807,0.09118399024009705,0.037291496992111206
606,503,0.020180420950055122,0.16175447404384613,-999.9888305664062,0.0009332738700322807,0.09118399024009705,0.037291496992111206
605,503,0.020180420950055122,0.16175447404384613,-999.9888305664062,0.0009332738700322807,0.09118399024009705,0.037291496992111206
667,504,-0.24368301033973694,-0.1495734453201294,-1000.0083618164062,0.004297719802707434,0.016974367201328278,-0.08032389730215073
676,504,-0.24368301033973694,-0.1495734453201294,-1000.0083618164062,0.004297719802707434,0.016974367201328278,-0.08032389730215073
672,504,-0.24368301033973694,-0.1495734453201294,-1000.0083618164062,0.004297719802707434,0.016974367201328278,-0.08032389730215073
688,504,-0.24368301033973694,-0.1495734453201294,-1000.0083618164062,0.004297719802707434,0.016974367201328278,-0.08032389730215073
598,504,-0.24368301033973694,-0.1495734453201294,-1000.0083618164062,0.004297719802707434,0.016974367201328278,-0.08032389730215073
607,504,-0.24368301033973694,-0.1495734453201294,-1000.0083618164062,0.004297719802707434,0.016974367201328278,-0.08032389730215073
603,504,-0.24368301033973694,-0.1495734453201294,-1000.0083618164062,0.004297719802707434,0.016974367201328278,-0.08032389730215073
619,504,-0.24368301033973694,-0.1495734453201294,-1000.0083618164062,0.004297719802707434,0.016974367201328278,-0.08032389730215073
678,505,-0.06489735841751099,-0.15695343911647797,-999.99658203125,-0.04797786474227905,0.002124189864844084,0.0012330813333392143
632,505,-0.06489735841751099,-0.15695343911647797,-999.99658203125,-0.04797786474227905,0.002124189864844084,0.0012330813333392143
631,505,-0.06489735841751099,-0.15695343911647797,-999.99658203125,-0.04797786474227905,0.002124189864844084,0.0012330813333392143
648,505,-0.06489735841751099,-0.15695343911647797,-999.99658203125,-0.04797786474227905,0.002124189864844084,0.0012330813333392143
609,505,-0.06489735841751099,-0.15695343911647797,-999.99658203125,-0.04797786474227905,0.002124189864844084,0.0012330813333392143
563,505,-0.06489735841751099,-0.15695343911647797,-999.99658203125,-0.04797786474227905,0.002124189864844084,0.0012330813333392143
562,505,-0.06489735841751099,-0.15695343911647797,-999.99658203125,-0.04797786474227905,0.002124189864844084,0.0012330813333392143
579,505,-0.06489735841751099,-0.15695343911647797,-999.99658203125,-0.04797786474227905,0.002124189864844084,0.0012330813333392143
680,506,-0.04677882045507431,-0.10730214416980743,-1000.0034790039062,-0.06651441752910614,-0.008671211078763008,0.0033288095146417618
623,506,-0.04677882045507431,-0.10730214416980743,-1000.0034790039062,-0.06651441752910614,-0.008671211078763008,0.0033288095146417618
638,506,-0.04677882045507431,-0.10730214416980743,-1000.0034790039062,-0.06651441752910614,-0.008671211078763008,0.0033288095146417618
658,506,-0.04677882045507431,-0.10730214416980743,-1000.0034790039062,-0.06651441752910614,-0.008671211078763008,0.0033288095146417618
611,506,-0.04677882045507431,-0.10730214416980743,-1000.0034790039062,-0.06651441752910614,-0.008671211078763008,0.0033288095146417618
554,506,-0.04677882045507431,-0.10730214416980743,-1000.0034790039062,-0.06651441752910614,-0.008671211078763008,0.0033288095146417618
569,506,-0.04677882045507431,-0.10730214416980743,-1000.0034790039062,-0.06651441752910614,-0.008671211078763008,0.0033288095146417618
589,506,-0.04677882045507431,-0.10730214416980743,-1000.0034790039062,-0.06651441752910614,-0.008671211078763008,0.0033288095146417618
657,507,-0.06753266602754593,-0.07878581434488297,-1000.0398559570312,0.059490010142326355,0.03325490653514862,0.013292540796101093
681,507,-0.06753266602754593,-0.07878581434488297,-1000.0398559570312,0.059490010142326355,0.03325490653514862,0.013292540796101093
670,507,-0.06753266602754593,-0.07878581434488297,-1000.0398559570312,0.059490010142326355,0.03325490653514862,0.013292540796101093
658,507,-0.06753266602754593,-0.07878581434488297,-1000.0398559570312,0.059490010142326355,0.03325490653514862,0.013292540796101093
588,507,-0.06753266602754593,-0.07878581434488297,-1000.0398559570312,0.059490010142326355,0.03325490653514862,0.013292540796101093
612,507,-0.06753266602754593,-0.07878581434488297,-1000.0398559570312,0.059490010142326355,0.03325490653514862,0.013292540796101093
601,507,-0.06753266602754593,-0.07878581434488297,-1000.0398559570312,0.059490010142326355,0.03325490653514862,0.013292540796101093
589,507,-0.06753266602754593,-0.07878581434488297,-1000.0398559570312,0.059490010142326355,0.03325490653514862,0.013292540796101093
681,508,-0.18219490349292755,-0.13404998183250427,-1000.0318603515625,-0.09818457067012787,-0.07446146756410599,0.06996616721153259
664,508,-0.18219490349292755,-0.13404998183250427,-1000.0318603515625,-0.09818457067012787,-0.07446146756410599,0.06996616721153259
690,508,-0.18219490349292755,-0.13404998183250427,-1000.0318603515625,-0.09818457067012787,-0.07446146756410599,0.06996616721153259
675,508,-0.18219490349292755,-0.13404998183250427,-1000.0318603515625,-0.09818457067012787,-0.07446146756410599,0.06996616721153259
612,508,-0.18219490349292755,-0.13404998183250427,-1000.0318603515625,-0.09818457067012787,-0.07446146756410599,0.06996616721153259
595,508,-0.18219490349292755,-0.13404998183250427,-1000.0318603515625,-0.09818457067012787,-0.07446146756410599,0.06996616721153259
621,508,-0.18219490349292755,-0.13404998183250427,-1000.0318603515625,-0.09818457067012787,-0.07446146756410599,0.06996616721153259
606,508,-0.18219490349292755,-0.13404998183250427,-1000.0318603515625,-0.09818457067012787,-0.07446146756410599,0.06996616721153259
683,509,0.1602659672498703,0.45086944103240967,-999.8984375,0.03361593931913376,0.05783573165535927,0.03601374849677086
644,509,0.1602659672498703,0.45086944103240967,-999.8984375,0.03361593931913376,0.05783573165535927,0.03601374849677086
645,509,0.1602659672498703,0.45086944103240967,-999.8984375,0.03361593931913376,0.05783573165535927,0.03601374849677086
669,509,0.1602659672498703,0.45086944103240967,-999.8984375,0.03361593931913376,0.05783573165535927,0.03601374849677086
614,509,0.1602659672498703,0.45086944103240967,-999.8984375,0.03361593931913376,0.05783573165535927,0.03601374849677086
575,509,0.1602659672498703,0.45086944103240967,-999.8984375,0.03361593931913376,0.05783573165535927,0.03601374849677086
576,509,0.1602659672498703,0.45086944103240967,-999.8984375,0.03361593931913376,0.05783573165535927,0.03601374849677086
600,509,0.1602659672498703,0.45086944103240967,-999.8984375,0.03361593931913376,0.05783573165535927,0.03601374849677086
684,510,0.12647505104541779,0.2736562490463257,-999.9347534179688,0.06838319450616837,0.01115262508392334,-0.01924113743007183
662,510,0.12647505104541779,0.2736562490463257,-999.9347534179688,0.06838319450616837,0.01115262508392334,-0.01924113743007183
647,510,0.12647505104541779,0.2736562490463257,-999.9347534179688,0.06838319450616837,0.01115262508392334,-0.01924113743007183
668,510,0.12647505104541779,0.2736562490463257,-999.9347534179688,0.06838319450616837,0.01115262508392334,-0.01924113743007183
615,510,0.12647505104541779,0.2736562490463257,-999.9347534179688,0.06838319450616837,0.01115262508392334,-0.01924113743007183
593,510,0.12647505104541779,0.2736562490463257,-999.9347534179688,0.06838319450616837,0.01115262508392334,-0.01924113743007183
578,510,0.12647505104541779,0.2736562490463257,-999.9347534179688,0.06838319450616837,0.01115262508392334,-0.01924113743007183
599,510,0.12647505104541779,0.2736562490463257,-999.9347534179688,0.06838319450616837,0.01115262508392334,-0.01924113743007183
686,511,0.07375432550907135,-0.0926612913608551,-1000.0054931640625,-0.004869008436799049,-0.04019855707883835,-0.001232679351232946
661,511,0.07375432550907135,-0.0926612913608551,-1000.0054931640625,-0.004869008436799049,-0.04019855707883835,-0.001232679351232946
650,511,0.07375432550907135,-0.0926612913608551,-1000.0054931640625,-0.004869008436799049,-0.04019855707883835,-0.001232679351232946
665,511,0.07375432550907135,-0.0926612913608551,-1000.0054931640625,-0.004869008436799049,-0.04019855707883835,-0.001232679351232946
617,511,0.07375432550907135,-0.0926612913608551,-1000.0054931640625,-0.004869008436799049,-0.04019855707883835,-0.001232679351232946
592,511,0.07375432550907135,-0.0926612913608551,-1000.0054931640625,-0.004869008436799049,-0.04019855707883835,-0.001232679351232946
581,511,0.07375432550907135,-0.0926612913608551,-1000.0054931640625,-0.004869008436799049,-0.04019855707883835,-0.001232679351232946
596,511,0.07375432550907135,-0.0926612913608551,-1000.0054931640625,-0.004869008436799049,-0.04019855707883835,-0.001232679351232946
687,512,0.13524293899536133,-0.0884632021188736,-1000.0335083007812,-0.05277667194604874,-0.08000030368566513,-0.00457500945776701
651,512,0.13524293899536133,-0.0884632021188736,-1000.0335083007812,-0.05277667194604874,-0.08000030368566513,-0.00457500945776701
652,512,0.13524293899536133,-0.0884632021188736,-1000.0335083007812,-0.05277667194604874,-0.08000030368566513,-0.00457500945776701
672,512,0.13524293899536133,-0.0884632021188736,-1000.0335083007812,-0.05277667194604874,-0.08000030368566513,-0.00457500945776701
618,512,0.13524293899536133,-0.0884632021188736,-1000.0335083007812,-0.05277667194604874,-0.08000030368566513,-0.00457500945776701
582,512,0.13524293899536133,-0.0884632021188736,-1000.0335083007812,-0.05277667194604874,-0.08000030368566513,-0.00457500945776701
583,512,0.13524293899536133,-0.0884632021188736,-1000.0335083007812,-0.05277667194604874,-0.08000030368566513,-0.00457500945776701
603,512,0.13524293899536133,-0.0884632021188736,-1000.0335083007812,-0.05277667194604874,-0.08000030368566513,-0.00457500945776701
689,513,-0.14574947953224182,-0.020110486075282097,-1000.0236206054688,-0.0632484033703804,-0.01996995322406292,0.014828965999186039
654,513,-0.14574947953224182,-0.020110486075282097,-1000.0236206054688,-0.0632484033703804,-0.01996995322406292,0.014828965999186039
659,513,-0.14574947953224182,-0.020110486075282097,-1000.0236206054688,-0.0632484033703804,-0.01996995322406292,0.014828965999186039
671,513,-0.14574947953224182,-0.020110486075282097,-1000.0236206054688,-0.0632484033703804,-0.01996995322406292,0.014828965999186039
620,513,-0.14574947953224182,-0.020110486075282097,-1000.0236206054688,-0.0632484033703804,-0.01996995322406292,0.014828965999186039
585,513,-0.14574947953224182,-0.020110486075282097,-1000.0236206054688,-0.0632484033703804,-0.01996995322406292,0.014828965999186039
590,513,-0.14574947953224182,-0.020110486075282097,-1000.0236206054688,-0.0632484033703804,-0.01996995322406292,0.014828965999186039
602,513,-0.14574947953224182,-0.020110486075282097,-1000.0236206054688,-0.0632484033703804,-0.01996995322406292,0.014828965999186039
714,514,0.04766334593296051,0.23744799196720123,-999.9983520507812,0.014015717431902885,0.006505745928734541,0.00016749817586969584
703,514,0.04766334593296051,0.23744799196720123,-999.9983520507812,0.014015717431902885,0.006505745928734541,0.00016749817586969584
702,514,0.04766334593296051,0.23744799196720123,-999.9983520507812,0.014015717431902885,0.006505745928734541,0.00016749817586969584
731,514,0.04766334593296051,0.23744799196720123,-999.9983520507812,0.014015717431902885,0.006505745928734541,0.00016749817586969584
645,514,0.04766334593296051,0.23744799196720123,-999.9983520507812,0.014015717431902885,0.006505745928734541,0.00016749817586969584
634,514,0.04766334593296051,0.23744799196720123,-999.9983520507812,0.014015717431902885,0.006505745928734541,0.00016749817586969584
633,514,0.04766334593296051,0.23744799196720123,-999.9983520507812,0.014015717431902885,0.006505745928734541,0.00016749817586969584
662,514,0.04766334593296051,0.23744799196720123,-999.9983520507812,0.014015717431902885,0.006505745928734541,0.00016749817586969584
731,515,0.07205142825841904,0.24185265600681305,-1000.0029907226562,-0.025098923593759537,0.00041020495700649917,-0.022032685577869415
702,515,0.07205142825841904,0.24185265600681305,-1000.0029907226562,-0.025098923593759537,0.00041020495700649917,-0.022032685577869415
711,515,0.07205142825841904,0.24185265600681305,-1000.0029907226562,-0.025098923593759537,0.00041020495700649917,-0.022032685577869415
716,515,0.07205142825841904,0.24185265600681305,-1000.0029907226562,-0.025098923593759537,0.00041020495700649917,-0.022032685577869415
662,515,0.07205142825841904,0.24185265600681305,-1000.0029907226562,-0.025098923593759537,0.00041020495700649917,-0.022032685577869415
633,515,0.07205142825841904,0.24185265600681305,-1000.0029907226562,-0.025098923593759537,0.00041020495700649917,-0.022032685577869415
642,515,0.07205142825841904,0.24185265600681305,-1000.0029907226562,-0.025098923593759537,0.00041020495700649917,-0.022032685577869415
647,515,0.07205142825841904,0.24185265600681305,-1000.0029907226562,-0.025098923593759537,0.00041020495700649917,-0.022032685577869415
712,516,0.027262357994914055,0.006051699630916119,-999.9974365234375,-0.02579534612596035,0.010531380772590637,-0.0016182477120310068
732,516,0.027262357994914055,0.006051699630916119,-999.9974365234375,-0.02579534612596035,0.010531380772590637,-0.0016182477120310068
715,516,0.027262357994914055,0.006051699630916119,-999.9974365234375,-0.02579534612596035,0.010531380772590637,-0.0016182477120310068
705,516,0.027262357994914055,0.006051699630916119,-999.9974365234375,-0.02579534612596035,0.010531380772590637,-0.0016182477120310068
643,516,0.027262357994914055,0.006051699630916119,-999.9974365234375,-0.02579534612596035,0.010531380772590637,-0.0016182477120310068
663,516,0.027262357994914055,0.006051699630916119,-999.9974365234375,-0.02579534612596035,0.010531380772590637,-0.0016182477120310068
646,516,0.027262357994914055,0.006051699630916119,-999.9974365234375,-0.02579534612596035,0.010531380772590637,-0.0016182477120310068
636,516,0.027262357994914055,0.006051699630916119,-999.9974365234375,-0.02579534612596035,0.010531380772590637,-0.0016182477120310068
703,517,0.07880353927612305,0.2379484921693802,-999.9938354492188,-0.06028968095779419,0.013295027427375317,-0.013500524684786797
714,517,0.07880353927612305,0.2379484921693802,-999.9938354492188,-0.06028968095779419,0.013295027427375317,-0.013500524684786797
713,517,0.07880353927612305,0.2379484921693802,-999.9938354492188,-0.06028968095779419,0.013295027427375317,-0.013500524684786797
704,517,0.07880353927612305,0.2379484921693802,-999.9938354492188,-0.06028968095779419,0.013295027427375317,-0.013500524684786797
634,517,0.07880353927612305,0.2379484921693802,-999.9938354492188,-0.06028968095779419,0.013295027427375317,-0.013500524684786797
645,517,0.07880353927612305,0.2379484921693802,-999.9938354492188,-0.06028968095779419,0.013295027427375317,-0.013500524684786797
644,517,0.07880353927612305,0.2379484921693802,-999.9938354492188,-0.06028968095779419,0.013295027427375317,-0.013500524684786797
635,517,0.07880353927612305,0.2379484921693802,-999.9938354492188,-0.06028968095779419,0.013295027427375317,-0.013500524684786797
742,518,0.059729985892772675,0.03535286709666252,-999.99560546875,0.03731919825077057,-0.0014914884231984615,-0.04147031903266907
755,518,0.059729985892772675,0.03535286709666252,-999.99560546875,0.03731919825077057,-0.0014914884231984615,-0.04147031903266907
734,518,0.059729985892772675,0.03535286709666252,-999.99560546875,0.03731919825077057,-0.0014914884231984615,-0.04147031903266907
745,518,0.059729985892772675,0.03535286709666252,-999.99560546875,0.03731919825077057,-0.0014914884231984615,-0.04147031903266907
673,518,0.059729985892772675,0.03535286709666252,-999.99560546875,0.03731919825077057,-0.0014914884231984615,-0.04147031903266907
686,518,0.059729985892772675,0.03535286709666252,-999.99560546875,0.03731919825077057,-0.0014914884231984615,-0.04147031903266907
665,518,0.059729985892772675,0.03535286709666252,-999.99560546875,0.03731919825077057,-0.0014914884231984615,-0.04147031903266907
676,518,0.059729985892772675,0.03535286709666252,-999.99560546875,0.03731919825077057,-0.0014914884231984615,-0.04147031903266907
758,519,-0.27510806918144226,-0.3143865764141083,-1000.0370483398438,-0.014843368902802467,-0.011816124431788921,0.013083445839583874
736,519,-0.27510806918144226,-0.3143865764141083,-1000.0370483398438,-0.014843368902802467,-0.011816124431788921,0.013083445839583874
722,519,-0.27510806918144226,-0.3143865764141083,-1000.0370483398438,-0.014843368902802467,-0.011816124431788921,0.013083445839583874
723,519,-0.27510806918144226,-0.3143865764141083,-1000.0370483398438,-0.014843368902802467,-0.011816124431788921,0.013083445839583874
689,519,-0.27510806918144226,-0.3143865764141083,-1000.0370483398438,-0.014843368902802467,-0.011816124431788921,0.013083445839583874
667,519,-0.27510806918144226,-0.3143865764141083,-1000.0370483398438,-0.014843368902802467,-0.011816124431788921,0.013083445839583874
653,519,-0.27510806918144226,-0.3143865764141083,-1000.0370483398438,-0.014843368902802467,-0.011816124431788921,0.013083445839583874
654,519,-0.27510806918144226,-0.3143865764141083,-1000.0370483398438,-0.014843368902802467,-0.011816124431788921,0.013083445839583874
746,520,-0.10835294425487518,-0.1683928668498993,-1000.01611328125,0.039599571377038956,0.04266273230314255,0.04312299191951752
743,520,-0.10835294425487518,-0.1683928668498993,-1000.01611328125,0.039599571377038956,0.04266273230314255,0.04312299191951752
742,520,-0.10835294425487518,-0.1683928668498993,-1000.01611328125,0.039599571377038956,0.04266273230314255,0.04312299191951752
745,520,-0.10835294425487518,-0.1683928668498993,-1000.01611328125,0.039599571377038956,0.04266273230314255,0.04312299191951752
677,520,-0.10835294425487518,-0.1683928668498993,-1000.01611328125,0.039599571377038956,0.04266273230314255,0.04312299191951752
674,520,-0.10835294425487518,-0.1683928668498993,-1000.01611328125,0.039599571377038956,0.04266273230314255,0.04312299191951752
673,520,-0.10835294425487518,-0.1683928668498993,-1000.01611328125,0.039599571377038956,0.04266273230314255,0.04312299191951752
676,520,-0.10835294425487518,-0.1683928668498993,-1000.01611328125,0.039599571377038956,0.04266273230314255,0.04312299191951752
737,521,0.18649332225322723,0.32114267349243164,-999.971435546875,0.04097656160593033,-0.052063193172216415,-0.0340772345662117
754,521,0.18649332225322723,0.32114267349243164,-999.971435546875,0.04097656160593033,-0.052063193172216415,-0.0340772345662117
742,521,0.18649332225322723,0.32114267349243164,-999.971435546875,0.04097656160593033,-0.052063193172216415,-0.0340772345662117
743,521,0.18649332225322723,0.32114267349243164,-999.971435546875,0.04097656160593033,-0.052063193172216415,-0.0340772345662117
668,521,0.18649332225322723,0.32114267349243164,-999.971435546875,0.04097656160593033,-0.052063193172216415,-0.0340772345662117
685,521,0.18649332225322723,0.32114267349243164,-999.971435546875,0.04097656160593033,-0.052063193172216415,-0.0340772345662117
673,521,0.18649332225322723,0.32114267349243164,-999.971435546875,0.04097656160593033,-0.052063193172216415,-0.0340772345662117
674,521,0.18649332225322723,0.32114267349243164,-999.971435546875,0.04097656160593033,-0.052063193172216415,-0.0340772345662117
717,522,-0.06136946752667427,-0.10070708394050598,-999.985107421875,-0.03095327690243721,-0.027433620765805244,0.03713633492588997
730,522,-0.06136946752667427,-0.10070708394050598,-999.985107421875,-0.03095327690243721,-0.027433620765805244,0.03713633492588997
755,522,-0.06136946752667427,-0.10070708394050598,-999.985107421875,-0.03095327690243721,-0.027433620765805244,0.03713633492588997
742,522,-0.06136946752667427,-0.10070708394050598,-999.985107421875,-0.03095327690243721,-0.027433620765805244,0.03713633492588997
648,522,-0.06136946752667427,-0.10070708394050598,-999.985107421875,-0.03095327690243721,-0.027433620765805244,0.03713633492588997
661,522,-0.06136946752667427,-0.10070708394050598,-999.985107421875,-0.03095327690243721,-0.027433620765805244,0.03713633492588997
686,522,-0.06136946752667427,-0.10070708394050598,-999.985107421875,-0.03095327690243721,-0.027433620765805244,0.03713633492588997
673,522,-0.06136946752667427,-0.10070708394050598,-999.985107421875,-0.03095327690243721,-0.027433620765805244,0.03713633492588997
757,523,-0.39156922698020935,-0.20826467871665955,-1000.0479736328125,-0.09497038275003433,-0.0579020194709301,-0.05625450238585472
741,523,-0.39156922698020935,-0.20826467871665955,-1000.0479736328125,-0.09497038275003433,-0.0579020194709301,-0.05625450238585472
721,523,-0.39156922698020935,-0.20826467871665955,-1000.0479736328125,-0.09497038275003433,-0.0579020194709301,-0.05625450238585472
729,523,-0.39156922698020935,-0.20826467871665955,-1000.0479736328125,-0.09497038275003433,-0.0579020194709301,-0.05625450238585472
688,523,-0.39156922698020935,-0.20826467871665955,-1000.0479736328125,-0.09497038275003433,-0.0579020194709301,-0.05625450238585472
672,523,-0.39156922698020935,-0.20826467871665955,-1000.0479736328125,-0.09497038275003433,-0.0579020194709301,-0.05625450238585472
652,523,-0.39156922698020935,-0.20826467871665955,-1000.0479736328125,-0.09497038275003433,-0.0579020194709301,-0.05625450238585472
660,523,-0.39156922698020935,-0.20826467871665955,-1000.0479736328125,-0.09497038275003433,-0.0579020194709301,-0.05625450238585472
751,524,0.10199180245399475,0.17971685528755188,-999.9560546875,0.0486009307205677,0.1062629297375679,-0.05272043123841286
746,524,0.10199180245399475,0.17971685528755188,-999.9560546875,0.0486009307205677,0.1062629297375679,-0.05272043123841286
725,524,0.10199180245399475,0.17971685528755188,-999.9560546875,0.0486009307205677,0.1062629297375679,-0.05272043123841286
739,524,0.10199180245399475,0.17971685528755188,-999.9560546875,0.0486009307205677,0.1062629297375679,-0.05272043123841286
682,524,0.10199180245399475,0.17971685528755188,-999.9560546875,0.0486009307205677,0.1062629297375679,-0.05272043123841286
677,524,0.10199180245399475,0.17971685528755188,-999.9560546875,0.0486009307205677,0.1062629297375679,-0.05272043123841286
656,524,0.10199180245399475,0.17971685528755188,-999.9560546875,0.0486009307205677,0.1062629297375679,-0.05272043123841286
670,524,0.10199180245399475,0.17971685528755188,-999.9560546875,0.0486009307205677,0.1062629297375679,-0.05272043123841286
725,525,-0.20478644967079163,-0.12227638065814972,-999.9979248046875,-0.1272122859954834,-0.0004323961620684713,-0.03299183398485184
740,525,-0.20478644967079163,-0.12227638065814972,-999.9979248046875,-0.1272122859954834,-0.0004323961620684713,-0.03299183398485184
748,525,-0.20478644967079163,-0.12227638065814972,-999.9979248046875,-0.1272122859954834,-0.0004323961620684713,-0.03299183398485184
749,525,-0.20478644967079163,-0.12227638065814972,-999.9979248046875,-0.1272122859954834,-0.0004323961620684713,-0.03299183398485184
656,525,-0.20478644967079163,-0.12227638065814972,-999.9979248046875,-0.1272122859954834,-0.0004323961620684713,-0.03299183398485184
671,525,-0.20478644967079163,-0.12227638065814972,-999.9979248046875,-0.1272122859954834,-0.0004323961620684713,-0.03299183398485184
679,525,-0.20478644967079163,-0.12227638065814972,-999.9979248046875,-0.1272122859954834,-0.0004323961620684713,-0.03299183398485184
680,525,-0.20478644967079163,-0.12227638065814972,-999.9979248046875,-0.1272122859954834,-0.0004323961620684713,-0.03299183398485184
732,526,-0.002091175178065896,0.059658296406269073,-999.9041137695312,0.17730693519115448,-0.010922310873866081,0.06229837238788605
713,526,-0.002091175178065896,0.059658296406269073,-999.9041137695312,0.17730693519115448,-0.010922310873866081,0.06229837238788605
752,526,-0.002091175178065896,0.059658296406269073,-999.9041137695312,0.17730693519115448,-0.010922310873866081,0.06229837238788605
735,526,-0.002091175178065896,0.059658296406269073,-999.9041137695312,0.17730693519115448,-0.010922310873866081,0.06229837238788605
663,526,-0.002091175178065896,0.059658296406269073,-999.9041137695312,0.17730693519115448,-0.010922310873866081,0.06229837238788605
644,526,-0.002091175178065896,0.059658296406269073,-999.9041137695312,0.17730693519115448,-0.010922310873866081,0.06229837238788605
683,526,-0.002091175178065896,0.059658296406269073,-999.9041137695312,0.17730693519115448,-0.010922310873866081,0.06229837238788605
666,526,-0.002091175178065896,0.059658296406269073,-999.9041137695312,0.17730693519115448,-0.010922310873866081,0.06229837238788605
759,527,-0.14600281417369843,-0.30139899253845215,-1000.0812377929688,0.012949014082551003,-0.019698603078722954,-0.057828355580568314
715,527,-0.14600281417369843,-0.30139899253845215,-1000.0812377929688,0.012949014082551003,-0.019698603078722954,-0.057828355580568314
732,527,-0.14600281417369843,-0.30139899253845215,-1000.0812377929688,0.012949014082551003,-0.019698603078722954,-0.057828355580568314
735,527,-0.14600281417369843,-0.30139899253845215,-1000.0812377929688,0.012949014082551003,-0.019698603078722954,-0.057828355580568314
690,527,-0.14600281417369843,-0.30139899253845215,-1000.0812377929688,0.012949014082551003,-0.019698603078722954,-0.057828355580568314
646,527,-0.14600281417369843,-0.30139899253845215,-1000.0812377929688,0.012949014082551003,-0.019698603078722954,-0.057828355580568314
663,527,-0.14600281417369843,-0.30139899253845215,-1000.0812377929688,0.012949014082551003,-0.019698603078722954,-0.057828355580568314
666,527,-0.14600281417369843,-0.30139899253845215,-1000.0812377929688,0.012949014082551003,-0.019698603078722954,-0.057828355580568314
719,528,-0.18609105050563812,-0.15220727026462555,-1000.02783203125,-0.02286827377974987,-0.04242875799536705,0.026849843561649323
720,528,-0.18609105050563812,-0.15220727026462555,-1000.02783203125,-0.02286827377974987,-0.04242875799536705,0.026849843561649323
756,528,-0.18609105050563812,-0.15220727026462555,-1000.02783203125,-0.02286827377974987,-0.04242875799536705,0.026849843561649323
734,528,-0.18609105050563812,-0.15220727026462555,-1000.02783203125,-0.02286827377974987,-0.04242875799536705,0.026849843561649323
650,528,-0.18609105050563812,-0.15220727026462555,-1000.02783203125,-0.02286827377974987,-0.04242875799536705,0.026849843561649323
651,528,-0.18609105050563812,-0.15220727026462555,-1000.02783203125,-0.02286827377974987,-0.04242875799536705,0.026849843561649323
687,528,-0.18609105050563812,-0.15220727026462555,-1000.02783203125,-0.02286827377974987,-0.04242875799536705,0.026849843561649323
665,528,-0.18609105050563812,-0.15220727026462555,-1000.02783203125,-0.02286827377974987,-0.04242875799536705,0.026849843561649323
704,529,0.1035534217953682,0.2272915542125702,-1000.0003051757812,-0.09208766371011734,0.002535560168325901,0.00740343751385808
713,529,0.1035534217953682,0.2272915542125702,-1000.0003051757812,-0.09208766371011734,0.002535560168325901,0.00740343751385808
732,529,0.1035534217953682,0.2272915542125702,-1000.0003051757812,-0.09208766371011734,0.002535560168325901,0.00740343751385808
712,529,0.1035534217953682,0.2272915542125702,-1000.0003051757812,-0.09208766371011734,0.002535560168325901,0.00740343751385808
635,529,0.1035534217953682,0.2272915542125702,-1000.0003051757812,-0.09208766371011734,0.002535560168325901,0.00740343751385808
644,529,0.1035534217953682,0.2272915542125702,-1000.0003051757812,-0.09208766371011734,0.002535560168325901,0.00740343751385808
663,529,0.1035534217953682,0.2272915542125702,-1000.0003051757812,-0.09208766371011734,0.002535560168325901,0.00740343751385808
643,529,0.1035534217953682,0.2272915542125702,-1000.0003051757812,-0.09208766371011734,0.002535560168325901,0.00740343751385808
701,530,0.09828755259513855,0.30488917231559753,-999.990234375,0.03996804729104042,-0.007251900155097246,-0.0035532847978174686
747,530,0.09828755259513855,0.30488917231559753,-999.990234375,0.03996804729104042,-0.007251900155097246,-0.0035532847978174686
716,530,0.09828755259513855,0.30488917231559753,-999.990234375,0.03996804729104042,-0.007251900155097246,-0.0035532847978174686
711,530,0.09828755259513855,0.30488917231559753,-999.990234375,0.03996804729104042,-0.007251900155097246,-0.0035532847978174686
632,530,0.09828755259513855,0.30488917231559753,-999.990234375,0.03996804729104042,-0.007251900155097246,-0.0035532847978174686
678,530,0.09828755259513855,0.30488917231559753,-999.990234375,0.03996804729104042,-0.007251900155097246,-0.0035532847978174686
647,530,0.09828755259513855,0.30488917231559753,-999.990234375,0.03996804729104042,-0.007251900155097246,-0.0035532847978174686
642,530,0.09828755259513855,0.30488917231559753,-999.990234375,0.03996804729104042,-0.007251900155097246,-0.0035532847978174686
717,531,0.097770556807518,0.006857942324131727,-999.9944458007812,0.03133946657180786,0.0016421022592112422,-0.0065332395024597645
700,531,0.097770556807518,0.006857942324131727,-999.9944458007812,0.03133946657180786,0.0016421022592112422,-0.0065332395024597645
710,531,0.097770556807518,0.006857942324131727,-999.9944458007812,0.03133946657180786,0.0016421022592112422,-0.0065332395024597645
730,531,0.097770556807518,0.006857942324131727,-999.9944458007812,0.03133946657180786,0.0016421022592112422,-0.0065332395024597645
648,531,0.097770556807518,0.006857942324131727,-999.9944458007812,0.03133946657180786,0.0016421022592112422,-0.0065332395024597645
631,531,0.097770556807518,0.006857942324131727,-999.9944458007812,0.03133946657180786,0.0016421022592112422,-0.0065332395024597645
641,531,0.097770556807518,0.006857942324131727,-999.9944458007812,0.03133946657180786,0.0016421022592112422,-0.0065332395024597645
661,531,0.097770556807518,0.006857942324131727,-999.9944458007812,0.03133946657180786,0.0016421022592112422,-0.0065332395024597645
718,532,0.055763985961675644,0.027989258989691734,-1000.0064086914062,0.008001335896551609,0.0036532720550894737,-0.0003451095544733107
706,532,0.055763985961675644,0.027989258989691734,-1000.0064086914062,0.008001335896551609,0.0036532720550894737,-0.0003451095544733107
705,532,0.055763985961675644,0.027989258989691734,-1000.0064086914062,0.008001335896551609,0.0036532720550894737,-0.0003451095544733107
715,532,0.055763985961675644,0.027989258989691734,-1000.0064086914062,0.008001335896551609,0.0036532720550894737,-0.0003451095544733107
649,532,0.055763985961675644,0.027989258989691734,-1000.0064086914062,0.008001335896551609,0.0036532720550894737,-0.0003451095544733107
637,532,0.055763985961675644,0.027989258989691734,-1000.0064086914062,0.008001335896551609,0.0036532720550894737,-0.0003451095544733107
636,532,0.055763985961675644,0.027989258989691734,-1000.0064086914062,0.008001335896551609,0.0036532720550894737,-0.0003451095544733107
646,532,0.055763985961675644,0.027989258989691734,-1000.0064086914062,0.008001335896551609,0.0036532720550894737,-0.0003451095544733107
730,533,0.04967093467712402,0.004178608767688274,-1000.008544921875,-0.008408129215240479,-0.003806618507951498,0.00370571156963706
710,533,0.04967093467712402,0.004178608767688274,-1000.008544921875,-0.008408129215240479,-0.003806618507951498,0.00370571156963706
699,533,0.04967093467712402,0.004178608767688274,-1000.008544921875,-0.008408129215240479,-0.003806618507951498,0.00370571156963706
719,533,0.04967093467712402,0.004178608767688274,-1000.008544921875,-0.008408129215240479,-0.003806618507951498,0.00370571156963706
661,533,0.04967093467712402,0.004178608767688274,-1000.008544921875,-0.008408129215240479,-0.003806618507951498,0.00370571156963706
641,533,0.04967093467712402,0.004178608767688274,-1000.008544921875,-0.008408129215240479,-0.003806618507951498,0.00370571156963706
630,533,0.04967093467712402,0.004178608767688274,-1000.008544921875,-0.008408129215240479,-0.003806618507951498,0.00370571156963706
650,533,0.04967093467712402,0.004178608767688274,-1000.008544921875,-0.008408129215240479,-0.003806618507951498,0.00370571156963706
754,534,-0.12157300859689713,-0.10244002193212509,-1000.034912109375,-0.11809326708316803,0.012888436205685139,-0.014705261215567589
747,534,-0.12157300859689713,-0.10244002193212509,-1000.034912109375,-0.11809326708316803,0.012888436205685139,-0.014705261215567589
717,534,-0.12157300859689713,-0.10244002193212509,-1000.034912109375,-0.11809326708316803,0.012888436205685139,-0.014705261215567589
742,534,-0.12157300859689713,-0.10244002193212509,-1000.034912109375,-0.11809326708316803,0.012888436205685139,-0.014705261215567589
685,534,-0.12157300859689713,-0.10244002193212509,-1000.034912109375,-0.11809326708316803,0.012888436205685139,-0.014705261215567589
678,534,-0.12157300859689713,-0.10244002193212509,-1000.034912109375,-0.11809326708316803,0.012888436205685139,-0.014705261215567589
648,534,-0.12157300859689713,-0.10244002193212509,-1000.034912109375,-0.11809326708316803,0.012888436205685139,-0.014705261215567589
673,534,-0.12157300859689713,-0.10244002193212509,-1000.034912109375,-0.11809326708316803,0.012888436205685139,-0.014705261215567589
719,535,0.10578740388154984,-0.0026504197157919407,-999.9896240234375,-0.028196310624480247,-0.002218934241682291,-0.01233943086117506
699,535,0.10578740388154984,-0.0026504197157919407,-999.9896240234375,-0.028196310624480247,-0.002218934241682291,-0.01233943086117506
698,535,0.10578740388154984,-0.0026504197157919407,-999.9896240234375,-0.028196310624480247,-0.002218934241682291,-0.01233943086117506
720,535,0.10578740388154984,-0.0026504197157919407,-999.9896240234375,-0.028196310624480247,-0.002218934241682291,-0.01233943086117506
650,535,0.10578740388154984,-0.0026504197157919407,-999.9896240234375,-0.028196310624480247,-0.002218934241682291,-0.01233943086117506
630,535,0.10578740388154984,-0.0026504197157919407,-999.9896240234375,-0.028196310624480247,-0.002218934241682291,-0.01233943086117506
629,535,0.10578740388154984,-0.0026504197157919407,-999.9896240234375,-0.028196310624480247,-0.002218934241682291,-0.01233943086117506
651,535,0.10578740388154984,-0.0026504197157919407,-999.9896240234375,-0.028196310624480247,-0.002218934241682291,-0.01233943086117506
720,536,0.1811600923538208,0.06834898144006729,-1000.0112915039062,0.022185316309332848,-0.006608804687857628,0.009533376432955265
698,536,0.1811600923538208,0.06834898144006729,-1000.0112915039062,0.022185316309332848,-0.006608804687857628,0.009533376432955265
697,536,0.1811600923538208,0.06834898144006729,-1000.0112915039062,0.022185316309332848,-0.006608804687857628,0.009533376432955265
721,536,0.1811600923538208,0.06834898144006729,-1000.0112915039062,0.022185316309332848,-0.006608804687857628,0.009533376432955265
651,536,0.1811600923538208,0.06834898144006729,-1000.0112915039062,0.022185316309332848,-0.006608804687857628,0.009533376432955265
629,536,0.1811600923538208,0.06834898144006729,-1000.0112915039062,0.022185316309332848,-0.006608804687857628,0.009533376432955265
628,536,0.1811600923538208,0.06834898144006729,-1000.0112915039062,0.022185316309332848,-0.006608804687857628,0.009533376432955265
652,536,0.1811600923538208,0.06834898144006729,-1000.0112915039062,0.022185316309332848,-0.006608804687857628,0.009533376432955265
751,537,-0.05049508064985275,0.15093043446540833,-1000.0305786132812,0.030803918838500977,-0.002463115844875574,0.07537498325109482
739,537,-0.05049508064985275,0.15093043446540833,-1000.0305786132812,0.030803918838500977,-0.002463115844875574,0.07537498325109482
750,537,-0.05049508064985275,0.15093043446540833,-1000.0305786132812,0.030803918838500977,-0.002463115844875574,0.07537498325109482
744,537,-0.05049508064985275,0.15093043446540833,-1000.0305786132812,0.030803918838500977,-0.002463115844875574,0.07537498325109482
682,537,-0.05049508064985275,0.15093043446540833,-1000.0305786132812,0.030803918838500977,-0.002463115844875574,0.07537498325109482
670,537,-0.05049508064985275,0.15093043446540833,-1000.0305786132812,0.030803918838500977,-0.002463115844875574,0.07537498325109482
681,537,-0.05049508064985275,0.15093043446540833,-1000.0305786132812,0.030803918838500977,-0.002463115844875574,0.07537498325109482
675,537,-0.05049508064985275,0.15093043446540833,-1000.0305786132812,0.030803918838500977,-0.002463115844875574,0.07537498325109482
706,538,0.06993348896503448,0.02103004790842533,-999.9943237304688,0.06570369750261307,0.00327238324098289,-0.009555370546877384
718,538,0.06993348896503448,0.02103004790842533,-999.9943237304688,0.06570369750261307,0.00327238324098289,-0.009555370546877384
726,538,0.06993348896503448,0.02103004790842533,-999.9943237304688,0.06570369750261307,0.00327238324098289,-0.009555370546877384
691,538,0.06993348896503448,0.02103004790842533,-999.9943237304688,0.06570369750261307,0.00327238324098289,-0.009555370546877384
637,538,0.06993348896503448,0.02103004790842533,-999.9943237304688,0.06570369750261307,0.00327238324098289,-0.009555370546877384
649,538,0.06993348896503448,0.02103004790842533,-999.9943237304688,0.06570369750261307,0.00327238324098289,-0.009555370546877384
657,538,0.06993348896503448,0.02103004790842533,-999.9943237304688,0.06570369750261307,0.00327238324098289,-0.009555370546877384
622,538,0.06993348896503448,0.02103004790842533,-999.9943237304688,0.06570369750261307,0.00327238324098289,-0.009555370546877384
721,539,0.11917712539434433,-0.01650170236825943,-999.9874877929688,-0.005901866592466831,0.002099747071042657,0.0041784862987697124
697,539,0.11917712539434433,-0.01650170236825943,-999.9874877929688,-0.005901866592466831,0.002099747071042657,0.0041784862987697124
709,539,0.11917712539434433,-0.01650170236825943,-999.9874877929688,-0.005901866592466831,0.002099747071042657,0.0041784862987697124
729,539,0.11917712539434433,-0.01650170236825943,-999.9874877929688,-0.005901866592466831,0.002099747071042657,0.0041784862987697124
652,539,0.11917712539434433,-0.01650170236825943,-999.9874877929688,-0.005901866592466831,0.002099747071042657,0.0041784862987697124
628,539,0.11917712539434433,-0.01650170236825943,-999.9874877929688,-0.005901866592466831,0.002099747071042657,0.0041784862987697124
640,539,0.11917712539434433,-0.01650170236825943,-999.9874877929688,-0.005901866592466831,0.002099747071042657,0.0041784862987697124
660,539,0.11917712539434433,-0.01650170236825943,-999.9874877929688,-0.005901866592466831,0.002099747071042657,0.0041784862987697124
729,540,0.14715325832366943,0.09038989990949631,-1000.0119018554688,-0.052635882049798965,-0.009428424760699272,0.005561612080782652
709,540,0.14715325832366943,0.09038989990949631,-1000.0119018554688,-0.052635882049798965,-0.009428424760699272,0.005561612080782652
696,540,0.14715325832366943,0.09038989990949631,-1000.0119018554688,-0.052635882049798965,-0.009428424760699272,0.005561612080782652
722,540,0.14715325832366943,0.09038989990949631,-1000.0119018554688,-0.052635882049798965,-0.009428424760699272,0.005561612080782652
660,540,0.14715325832366943,0.09038989990949631,-1000.0119018554688,-0.052635882049798965,-0.009428424760699272,0.005561612080782652
640,540,0.14715325832366943,0.09038989990949631,-1000.0119018554688,-0.052635882049798965,-0.009428424760699272,0.005561612080782652
627,540,0.14715325832366943,0.09038989990949631,-1000.0119018554688,-0.052635882049798965,-0.009428424760699272,0.005561612080782652
653,540,0.14715325832366943,0.09038989990949631,-1000.0119018554688,-0.052635882049798965,-0.009428424760699272,0.005561612080782652
722,541,0.07803349941968918,0.1548570692539215,-999.9865112304688,-0.060810111463069916,0.003911713138222694,-0.008223000913858414
696,541,0.07803349941968918,0.1548570692539215,-999.9865112304688,-0.060810111463069916,0.003911713138222694,-0.008223000913858414
695,541,0.07803349941968918,0.1548570692539215,-999.9865112304688,-0.060810111463069916,0.003911713138222694,-0.008223000913858414
723,541,0.07803349941968918,0.1548570692539215,-999.9865112304688,-0.060810111463069916,0.003911713138222694,-0.008223000913858414
653,541,0.07803349941968918,0.1548570692539215,-999.9865112304688,-0.060810111463069916,0.003911713138222694,-0.008223000913858414
627,541,0.07803349941968918,0.1548570692539215,-999.9865112304688,-0.060810111463069916,0.003911713138222694,-0.008223000913858414
626,541,0.07803349941968918,0.1548570692539215,-999.9865112304688,-0.060810111463069916,0.003911713138222694,-0.008223000913858414
654,541,0.07803349941968918,0.1548570692539215,-999.9865112304688,-0.060810111463069916,0.003911713138222694,-0.008223000913858414
723,542,0.014658438041806221,0.09363766759634018,-1000.0112915039062,0.0033090829383581877,-0.012910302728414536,0.01059150043874979
695,542,0.014658438041806221,0.09363766759634018,-1000.0112915039062,0.0033090829383581877,-0.012910302728414536,0.01059150043874979
708,542,0.014658438041806221,0.09363766759634018,-1000.0112915039062,0.0033090829383581877,-0.012910302728414536,0.01059150043874979
728,542,0.014658438041806221,0.09363766759634018,-1000.0112915039062,0.0033090829383581877,-0.012910302728414536,0.01059150043874979
654,542,0.014658438041806221,0.09363766759634018,-1000.0112915039062,0.0033090829383581877,-0.012910302728414536,0.01059150043874979
626,542,0.014658438041806221,0.09363766759634018,-1000.0112915039062,0.0033090829383581877,-0.012910302728414536,0.01059150043874979
639,542,0.014658438041806221,0.09363766759634018,-1000.0112915039062,0.0033090829383581877,-0.012910302728414536,0.01059150043874979
659,542,0.014658438041806221,0.09363766759634018,-1000.0112915039062,0.0033090829383581877,-0.012910302728414536,0.01059150043874979
728,543,0.01972387544810772,0.07782255858182907,-999.992919921875,0.021561598405241966,0.01738760806620121,0.0003119668399449438
708,543,0.01972387544810772,0.07782255858182907,-999.992919921875,0.021561598405241966,0.01738760806620121,0.0003119668399449438
694,543,0.01972387544810772,0.07782255858182907,-999.992919921875,0.021561598405241966,0.01738760806620121,0.0003119668399449438
724,543,0.01972387544810772,0.07782255858182907,-999.992919921875,0.021561598405241966,0.01738760806620121,0.0003119668399449438
659,543,0.01972387544810772,0.07782255858182907,-999.992919921875,0.021561598405241966,0.01738760806620121,0.0003119668399449438
639,543,0.01972387544810772,0.07782255858182907,-999.992919921875,0.021561598405241966,0.01738760806620121,0.0003119668399449438
625,543,0.01972387544810772,0.07782255858182907,-999.992919921875,0.021561598405241966,0.01738760806620121,0.0003119668399449438
655,543,0.01972387544810772,0.07782255858182907,-999.992919921875,0.021561598405241966,0.01738760806620121,0.0003119668399449438
748,544,0.23846793174743652,0.2502483129501343,-999.9947509765625,0.10102418810129166,0.00835405383259058,0.014282557182013988
693,544,0.23846793174743652,0.2502483129501343,-999.9947509765625,0.10102418810129166,0.00835405383259058,0.014282557182013988
692,544,0.23846793174743652,0.2502483129501343,-999.9947509765625,0.10102418810129166,0.00835405383259058,0.014282557182013988
749,544,0.23846793174743652,0.2502483129501343,-999.9947509765625,0.10102418810129166,0.00835405383259058,0.014282557182013988
679,544,0.23846793174743652,0.2502483129501343,-999.9947509765625,0.10102418810129166,0.00835405383259058,0.014282557182013988
624,544,0.23846793174743652,0.2502483129501343,-999.9947509765625,0.10102418810129166,0.00835405383259058,0.014282557182013988
623,544,0.23846793174743652,0.2502483129501343,-999.9947509765625,0.10102418810129166,0.00835405383259058,0.014282557182013988
680,544,0.23846793174743652,0.2502483129501343,-999.9947509765625,0.10102418810129166,0.00835405383259058,0.014282557182013988
727,545,0.004154286812990904,0.06374502182006836,-1000.0043334960938,0.016702445223927498,0.0040594725869596004,0.004542042501270771
707,545,0.004154286812990904,0.06374502182006836,-1000.0043334960938,0.016702445223927498,0.0040594725869596004,0.004542042501270771
691,545,0.004154286812990904,0.06374502182006836,-1000.0043334960938,0.016702445223927498,0.0040594725869596004,0.004542042501270771
726,545,0.004154286812990904,0.06374502182006836,-1000.0043334960938,0.016702445223927498,0.0040594725869596004,0.004542042501270771
658,545,0.004154286812990904,0.06374502182006836,-1000.0043334960938,0.016702445223927498,0.0040594725869596004,0.004542042501270771
638,545,0.004154286812990904,0.06374502182006836,-1000.0043334960938,0.016702445223927498,0.0040594725869596004,0.004542042501270771
622,545,0.004154286812990904,0.06374502182006836,-1000.0043334960938,0.016702445223927498,0.0040594725869596004,0.004542042501270771
657,545,0.004154286812990904,0.06374502182006836,-1000.0043334960938,0.016702445223927498,0.0040594725869596004,0.004542042501270771
750,546,-0.26525402069091797,-0.3862042725086212,-1000.0828247070312,-0.06338000297546387,0.01687823235988617,0.01435595192015171
726,546,-0.26525402069091797,-0.3862042725086212,-1000.0828247070312,-0.06338000297546387,0.01687823235988617,0.01435595192015171
718,546,-0.26525402069091797,-0.3862042725086212,-1000.0828247070312,-0.06338000297546387,0.01687823235988617,0.01435595192015171
733,546,-0.26525402069091797,-0.3862042725086212,-1000.0828247070312,-0.06338000297546387,0.01687823235988617,0.01435595192015171
681,546,-0.26525402069091797,-0.3862042725086212,-1000.0828247070312,-0.06338000297546387,0.01687823235988617,0.01435595192015171
657,546,-0.26525402069091797,-0.3862042725086212,-1000.0828247070312,-0.06338000297546387,0.01687823235988617,0.01435595192015171
649,546,-0.26525402069091797,-0.3862042725086212,-1000.0828247070312,-0.06338000297546387,0.01687823235988617,0.01435595192015171
664,546,-0.26525402069091797,-0.3862042725086212,-1000.0828247070312,-0.06338000297546387,0.01687823235988617,0.01435595192015171
749,547,-0.12900474667549133,-0.30707550048828125,-1000.040771484375,-0.038447581231594086,-0.033344466239213943,0.008635353296995163
727,547,-0.12900474667549133,-0.30707550048828125,-1000.040771484375,-0.038447581231594086,-0.033344466239213943,0.008635353296995163
739,547,-0.12900474667549133,-0.30707550048828125,-1000.040771484375,-0.038447581231594086,-0.033344466239213943,0.008635353296995163
725,547,-0.12900474667549133,-0.30707550048828125,-1000.040771484375,-0.038447581231594086,-0.033344466239213943,0.008635353296995163
680,547,-0.12900474667549133,-0.30707550048828125,-1000.040771484375,-0.038447581231594086,-0.033344466239213943,0.008635353296995163
658,547,-0.12900474667549133,-0.30707550048828125,-1000.040771484375,-0.038447581231594086,-0.033344466239213943,0.008635353296995163
670,547,-0.12900474667549133,-0.30707550048828125,-1000.040771484375,-0.038447581231594086,-0.033344466239213943,0.008635353296995163
656,547,-0.12900474667549133,-0.30707550048828125,-1000.040771484375,-0.038447581231594086,-0.033344466239213943,0.008635353296995163
724,548,0.12264282256364822,0.1647534817457199,-999.99951171875,0.11711707711219788,-0.018819712102413177,0.00919833779335022
694,548,0.12264282256364822,0.1647534817457199,-999.99951171875,0.11711707711219788,-0.018819712102413177,0.00919833779335022
693,548,0.12264282256364822,0.1647534817457199,-999.99951171875,0.11711707711219788,-0.018819712102413177,0.00919833779335022
748,548,0.12264282256364822,0.1647534817457199,-999.99951171875,0.11711707711219788,-0.018819712102413177,0.00919833779335022
655,548,0.12264282256364822,0.1647534817457199,-999.99951171875,0.11711707711219788,-0.018819712102413177,0.00919833779335022
625,548,0.12264282256364822,0.1647534817457199,-999.99951171875,0.11711707711219788,-0.018819712102413177,0.00919833779335022
624,548,0.12264282256364822,0.1647534817457199,-999.99951171875,0.11711707711219788,-0.018819712102413177,0.00919833779335022
679,548,0.12264282256364822,0.1647534817457199,-999.99951171875,0.11711707711219788,-0.018819712102413177,0.00919833779335022
733,549,0.0374273918569088,0.3229033648967743,-999.9095458984375,-0.010776023380458355,-0.06360738724470139,0.05673789605498314
718,549,0.0374273918569088,0.3229033648967743,-999.9095458984375,-0.010776023380458355,-0.06360738724470139,0.05673789605498314
715,549,0.0374273918569088,0.3229033648967743,-999.9095458984375,-0.010776023380458355,-0.06360738724470139,0.05673789605498314
759,549,0.0374273918569088,0.3229033648967743,-999.9095458984375,-0.010776023380458355,-0.06360738724470139,0.05673789605498314
664,549,0.0374273918569088,0.3229033648967743,-999.9095458984375,-0.010776023380458355,-0.06360738724470139,0.05673789605498314
649,549,0.0374273918569088,0.3229033648967743,-999.9095458984375,-0.010776023380458355,-0.06360738724470139,0.05673789605498314
646,549,0.0374273918569088,0.3229033648967743,-999.9095458984375,-0.010776023380458355,-0.06360738724470139,0.05673789605498314
690,549,0.0374273918569088,0.3229033648967743,-999.9095458984375,-0.010776023380458355,-0.06360738724470139,0.05673789605498314
744,550,-0.0485273152589798,-0.11132887750864029,-1000.0131225585938,-0.11479722708463669,0.011900776997208595,0.05525364726781845
759,550,-0.0485273152589798,-0.11132887750864029,-1000.0131225585938,-0.11479722708463669,0.011900776997208595,0.05525364726781845
735,550,-0.0485273152589798,-0.11132887750864029,-1000.0131225585938,-0.11479722708463669,0.011900776997208595,0.05525364726781845
743,550,-0.0485273152589798,-0.11132887750864029,-1000.0131225585938,-0.11479722708463669,0.011900776997208595,0.05525364726781845
675,550,-0.0485273152589798,-0.11132887750864029,-1000.0131225585938,-0.11479722708463669,0.011900776997208595,0.05525364726781845
690,550,-0.0485273152589798,-0.11132887750864029,-1000.0131225585938,-0.11479722708463669,0.011900776997208595,0.05525364726781845
666,550,-0.0485273152589798,-0.11132887750864029,-1000.0131225585938,-0.11479722708463669,0.011900776997208595,0.05525364726781845
674,550,-0.0485273152589798,-0.11132887750864029,-1000.0131225585938,-0.11479722708463669,0.011900776997208595,0.05525364726781845
714,551,0.030743876472115517,-0.1625184416770935,-999.9031372070312,0.08526892960071564,-0.00797100830823183,0.08195983618497849
731,551,0.030743876472115517,-0.1625184416770935,-999.9031372070312,0.08526892960071564,-0.00797100830823183,0.08195983618497849
753,551,0.030743876472115517,-0.1625184416770935,-999.9031372070312,0.08526892960071564,-0.00797100830823183,0.08195983618497849
738,551,0.030743876472115517,-0.1625184416770935,-999.9031372070312,0.08526892960071564,-0.00797100830823183,0.08195983618497849
645,551,0.030743876472115517,-0.1625184416770935,-999.9031372070312,0.08526892960071564,-0.00797100830823183,0.08195983618497849
662,551,0.030743876472115517,-0.1625184416770935,-999.9031372070312,0.08526892960071564,-0.00797100830823183,0.08195983618497849
684,551,0.030743876472115517,-0.1625184416770935,-999.9031372070312,0.08526892960071564,-0.00797100830823183,0.08195983618497849
669,551,0.030743876472115517,-0.1625184416770935,-999.9031372070312,0.08526892960071564,-0.00797100830823183,0.08195983618497849
738,552,-0.03536844626069069,0.2682662606239319,-999.9951171875,0.018103552982211113,0.018565263599157333,-0.08631155639886856
753,552,-0.03536844626069069,0.2682662606239319,-999.9951171875,0.018103552982211113,0.018565263599157333,-0.08631155639886856
737,552,-0.03536844626069069,0.2682662606239319,-999.9951171875,0.018103552982211113,0.018565263599157333,-0.08631155639886856
743,552,-0.03536844626069069,0.2682662606239319,-999.9951171875,0.018103552982211113,0.018565263599157333,-0.08631155639886856
669,552,-0.03536844626069069,0.2682662606239319,-999.9951171875,0.018103552982211113,0.018565263599157333,-0.08631155639886856
684,552,-0.03536844626069069,0.2682662606239319,-999.9951171875,0.018103552982211113,0.018565263599157333,-0.08631155639886856
668,552,-0.03536844626069069,0.2682662606239319,-999.9951171875,0.018103552982211113,0.018565263599157333,-0.08631155639886856
674,552,-0.03536844626069069,0.2682662606239319,-999.9951171875,0.018103552982211113,0.018565263599157333,-0.08631155639886856
740,553,-0.21031944453716278,-0.23312975466251373,-1000.0205688476562,-0.09317202866077423,-0.006049087271094322,-0.017078328877687454
728,553,-0.21031944453716278,-0.23312975466251373,-1000.0205688476562,-0.09317202866077423,-0.006049087271094322,-0.017078328877687454
724,553,-0.21031944453716278,-0.23312975466251373,-1000.0205688476562,-0.09317202866077423,-0.006049087271094322,-0.017078328877687454
748,553,-0.21031944453716278,-0.23312975466251373,-1000.0205688476562,-0.09317202866077423,-0.006049087271094322,-0.017078328877687454
671,553,-0.21031944453716278,-0.23312975466251373,-1000.0205688476562,-0.09317202866077423,-0.006049087271094322,-0.017078328877687454
659,553,-0.21031944453716278,-0.23312975466251373,-1000.0205688476562,-0.09317202866077423,-0.006049087271094322,-0.017078328877687454
655,553,-0.21031944453716278,-0.23312975466251373,-1000.0205688476562,-0.09317202866077423,-0.006049087271094322,-0.017078328877687454
679,553,-0.21031944453716278,-0.23312975466251373,-1000.0205688476562,-0.09317202866077423,-0.006049087271094322,-0.017078328877687454
738,554,0.1630980223417282,0.3040317893028259,-999.9730224609375,-0.03663715720176697,0.0682239830493927,0.0018504542531445622
743,554,0.1630980223417282,0.3040317893028259,-999.9730224609375,-0.03663715720176697,0.0682239830493927,0.0018504542531445622
735,554,0.1630980223417282,0.3040317893028259,-999.9730224609375,-0.03663715720176697,0.0682239830493927,0.0018504542531445622
752,554,0.1630980223417282,0.3040317893028259,-999.9730224609375,-0.03663715720176697,0.0682239830493927,0.0018504542531445622
669,554,0.1630980223417282,0.3040317893028259,-999.9730224609375,-0.03663715720176697,0.0682239830493927,0.0018504542531445622
674,554,0.1630980223417282,0.3040317893028259,-999.9730224609375,-0.03663715720176697,0.0682239830493927,0.0018504542531445622
666,554,0.1630980223417282,0.3040317893028259,-999.9730224609375,-0.03663715720176697,0.0682239830493927,0.0018504542531445622
683,554,0.1630980223417282,0.3040317893028259,-999.9730224609375,-0.03663715720176697,0.0682239830493927,0.0018504542531445622
716,555,-0.0768016129732132,-0.402879536151886,-999.968017578125,0.021901793777942657,0.03753076121211052,0.04937518388032913
747,555,-0.0768016129732132,-0.402879536151886,-999.968017578125,0.021901793777942657,0.03753076121211052,0.04937518388032913
754,555,-0.0768016129732132,-0.402879536151886,-999.968017578125,0.021901793777942657,0.03753076121211052,0.04937518388032913
737,555,-0.0768016129732132,-0.402879536151886,-999.968017578125,0.021901793777942657,0.03753076121211052,0.04937518388032913
647,555,-0.0768016129732132,-0.402879536151886,-999.968017578125,0.021901793777942657,0.03753076121211052,0.04937518388032913
678,555,-0.0768016129732132,-0.402879536151886,-999.968017578125,0.021901793777942657,0.03753076121211052,0.04937518388032913
685,555,-0.0768016129732132,-0.402879536151886,-999.968017578125,0.021901793777942657,0.03753076121211052,0.04937518388032913
668,555,-0.0768016129732132,-0.402879536151886,-999.968017578125,0.021901793777942657,0.03753076121211052,0.04937518388032913
758,556,0.1919184923171997,0.19544078409671783,-1000.0018310546875,0.06745905429124832,-0.028188439086079597,0.0722532868385315
740,556,0.1919184923171997,0.19544078409671783,-1000.0018310546875,0.06745905429124832,-0.028188439086079597,0.0722532868385315
725,556,0.1919184923171997,0.19544078409671783,-1000.0018310546875,0.06745905429124832,-0.028188439086079597,0.0722532868385315
746,556,0.1919184923171997,0.19544078409671783,-1000.0018310546875,0.06745905429124832,-0.028188439086079597,0.0722532868385315
689,556,0.1919184923171997,0.19544078409671783,-1000.0018310546875,0.06745905429124832,-0.028188439086079597,0.0722532868385315
671,556,0.1919184923171997,0.19544078409671783,-1000.0018310546875,0.06745905429124832,-0.028188439086079597,0.0722532868385315
656,556,0.1919184923171997,0.19544078409671783,-1000.0018310546875,0.06745905429124832,-0.028188439086079597,0.0722532868385315
677,556,0.1919184923171997,0.19544078409671783,-1000.0018310546875,0.06745905429124832,-0.028188439086079597,0.0722532868385315
734,557,0.25798696279525757,-0.03651382774114609,-999.9948120117188,0.0012989086098968983,-0.0525963120162487,-0.0313991978764534
756,557,0.25798696279525757,-0.03651382774114609,-999.9948120117188,0.0012989086098968983,-0.0525963120162487,-0.0313991978764534
741,557,0.25798696279525757,-0.03651382774114609,-999.9948120117188,0.0012989086098968983,-0.0525963120162487,-0.0313991978764534
745,557,0.25798696279525757,-0.03651382774114609,-999.9948120117188,0.0012989086098968983,-0.0525963120162487,-0.0313991978764534
665,557,0.25798696279525757,-0.03651382774114609,-999.9948120117188,0.0012989086098968983,-0.0525963120162487,-0.0313991978764534
687,557,0.25798696279525757,-0.03651382774114609,-999.9948120117188,0.0012989086098968983,-0.0525963120162487,-0.0313991978764534
672,557,0.25798696279525757,-0.03651382774114609,-999.9948120117188,0.0012989086098968983,-0.0525963120162487,-0.0313991978764534
676,557,0.25798696279525757,-0.03651382774114609,-999.9948120117188,0.0012989086098968983,-0.0525963120162487,-0.0313991978764534
757,558,0.08278918266296387,0.0658724308013916,-999.9600830078125,0.183651864528656,0.0676175132393837,-0.00444530975073576
729,558,0.08278918266296387,0.0658724308013916,-999.9600830078125,0.183651864528656,0.0676175132393837,-0.00444530975073576
722,558,0.08278918266296387,0.0658724308013916,-999.9600830078125,0.183651864528656,0.0676175132393837,-0.00444530975073576
736,558,0.08278918266296387,0.0658724308013916,-999.9600830078125,0.183651864528656,0.0676175132393837,-0.00444530975073576
688,558,0.08278918266296387,0.0658724308013916,-999.9600830078125,0.183651864528656,0.0676175132393837,-0.00444530975073576
660,558,0.08278918266296387,0.0658724308013916,-999.9600830078125,0.183651864528656,0.0676175132393837,-0.00444530975073576
653,558,0.08278918266296387,0.0658724308013916,-999.9600830078125,0.183651864528656,0.0676175132393837,-0.00444530975073576
667,558,0.08278918266296387,0.0658724308013916,-999.9600830078125,0.183651864528656,0.0676175132393837,-0.00444530975073576
746,559,-0.10925862938165665,0.08831678330898285,-999.9946899414062,-0.10180302709341049,-0.0023394208401441574,-0.06235954165458679
745,559,-0.10925862938165665,0.08831678330898285,-999.9946899414062,-0.10180302709341049,-0.0023394208401441574,-0.06235954165458679
736,559,-0.10925862938165665,0.08831678330898285,-999.9946899414062,-0.10180302709341049,-0.0023394208401441574,-0.06235954165458679
758,559,-0.10925862938165665,0.08831678330898285,-999.9946899414062,-0.10180302709341049,-0.0023394208401441574,-0.06235954165458679
677,559,-0.10925862938165665,0.08831678330898285,-999.9946899414062,-0.10180302709341049,-0.0023394208401441574,-0.06235954165458679
676,559,-0.10925862938165665,0.08831678330898285,-999.9946899414062,-0.10180302709341049,-0.0023394208401441574,-0.06235954165458679
667,559,-0.10925862938165665,0.08831678330898285,-999.9946899414062,-0.10180302709341049,-0.0023394208401441574,-0.06235954165458679
689,559,-0.10925862938165665,0.08831678330898285,-999.9946899414062,-0.10180302709341049,-0.0023394208401441574,-0.06235954165458679
746,560,-0.025401687249541283,-0.1949966549873352,-1000.0140991210938,-0.00016971086733974516,-0.10857412219047546,-0.04317302256822586
751,560,-0.025401687249541283,-0.1949966549873352,-1000.0140991210938,-0.00016971086733974516,-0.10857412219047546,-0.04317302256822586
744,560,-0.025401687249541283,-0.1949966549873352,-1000.0140991210938,-0.00016971086733974516,-0.10857412219047546,-0.04317302256822586
743,560,-0.025401687249541283,-0.1949966549873352,-1000.0140991210938,-0.00016971086733974516,-0.10857412219047546,-0.04317302256822586
677,560,-0.025401687249541283,-0.1949966549873352,-1000.0140991210938,-0.00016971086733974516,-0.10857412219047546,-0.04317302256822586
682,560,-0.025401687249541283,-0.1949966549873352,-1000.0140991210938,-0.00016971086733974516,-0.10857412219047546,-0.04317302256822586
675,560,-0.025401687249541283,-0.1949966549873352,-1000.0140991210938,-0.00016971086733974516,-0.10857412219047546,-0.04317302256822586
674,560,-0.025401687249541283,-0.1949966549873352,-1000.0140991210938,-0.00016971086733974516,-0.10857412219047546,-0.04317302256822586
736,561,0.2873886823654175,0.17590297758579254,-999.990234375,-0.008676311001181602,-0.024152377620339394,0.09014283865690231
745,561,0.2873886823654175,0.17590297758579254,-999.990234375,-0.008676311001181602,-0.024152377620339394,0.09014283865690231
741,561,0.2873886823654175,0.17590297758579254,-999.990234375,-0.008676311001181602,-0.024152377620339394,0.09014283865690231
757,561,0.2873886823654175,0.17590297758579254,-999.990234375,-0.008676311001181602,-0.024152377620339394,0.09014283865690231
667,561,0.2873886823654175,0.17590297758579254,-999.990234375,-0.008676311001181602,-0.024152377620339394,0.09014283865690231
676,561,0.2873886823654175,0.17590297758579254,-999.990234375,-0.008676311001181602,-0.024152377620339394,0.09014283865690231
672,561,0.2873886823654175,0.17590297758579254,-999.990234375,-0.008676311001181602,-0.024152377620339394,0.09014283865690231
688,561,0.2873886823654175,0.17590297758579254,-999.990234375,-0.008676311001181602,-0.024152377620339394,0.09014283865690231
747,562,0.07688333839178085,0.18628676235675812,-1000.0042724609375,0.0577036514878273,-0.0028899782337248325,-0.000885067624039948
701,562,0.07688333839178085,0.18628676235675812,-1000.0042724609375,0.0577036514878273,-0.0028899782337248325,-0.000885067624039948
700,562,0.07688333839178085,0.18628676235675812,-1000.0042724609375,0.0577036514878273,-0.0028899782337248325,-0.000885067624039948
717,562,0.07688333839178085,0.18628676235675812,-1000.0042724609375,0.0577036514878273,-0.0028899782337248325,-0.000885067624039948
678,562,0.07688333839178085,0.18628676235675812,-1000.0042724609375,0.0577036514878273,-0.0028899782337248325,-0.000885067624039948
632,562,0.07688333839178085,0.18628676235675812,-1000.0042724609375,0.0577036514878273,-0.0028899782337248325,-0.000885067624039948
631,562,0.07688333839178085,0.18628676235675812,-1000.0042724609375,0.0577036514878273,-0.0028899782337248325,-0.000885067624039948
648,562,0.07688333839178085,0.18628676235675812,-1000.0042724609375,0.0577036514878273,-0.0028899782337248325,-0.000885067624039948
749,563,0.05729274824261665,0.13258181512355804,-999.9959106445312,0.0800531730055809,0.0112956827506423,-0.0053129978477954865
692,563,0.05729274824261665,0.13258181512355804,-999.9959106445312,0.0800531730055809,0.0112956827506423,-0.0053129978477954865
707,563,0.05729274824261665,0.13258181512355804,-999.9959106445312,0.0800531730055809,0.0112956827506423,-0.0053129978477954865
727,563,0.05729274824261665,0.13258181512355804,-999.9959106445312,0.0800531730055809,0.0112956827506423,-0.0053129978477954865
680,563,0.05729274824261665,0.13258181512355804,-999.9959106445312,0.0800531730055809,0.0112956827506423,-0.0053129978477954865
623,563,0.05729274824261665,0.13258181512355804,-999.9959106445312,0.0800531730055809,0.0112956827506423,-0.0053129978477954865
638,563,0.05729274824261665,0.13258181512355804,-999.9959106445312,0.0800531730055809,0.0112956827506423,-0.0053129978477954865
658,563,0.05729274824261665,0.13258181512355804,-999.9959106445312,0.0800531730055809,0.0112956827506423,-0.0053129978477954865
726,564,0.08221394568681717,0.09444192796945572,-999.9502563476562,-0.07197170704603195,-0.04068736359477043,-0.011422528885304928
750,564,0.08221394568681717,0.09444192796945572,-999.9502563476562,-0.07197170704603195,-0.04068736359477043,-0.011422528885304928
739,564,0.08221394568681717,0.09444192796945572,-999.9502563476562,-0.07197170704603195,-0.04068736359477043,-0.011422528885304928
727,564,0.08221394568681717,0.09444192796945572,-999.9502563476562,-0.07197170704603195,-0.04068736359477043,-0.011422528885304928
657,564,0.08221394568681717,0.09444192796945572,-999.9502563476562,-0.07197170704603195,-0.04068736359477043,-0.011422528885304928
681,564,0.08221394568681717,0.09444192796945572,-999.9502563476562,-0.07197170704603195,-0.04068736359477043,-0.011422528885304928
670,564,0.08221394568681717,0.09444192796945572,-999.9502563476562,-0.07197170704603195,-0.04068736359477043,-0.011422528885304928
658,564,0.08221394568681717,0.09444192796945572,-999.9502563476562,-0.07197170704603195,-0.04068736359477043,-0.011422528885304928
750,565,0.22525127232074738,0.15896819531917572,-999.9607543945312,0.11580560356378555,0.09526669234037399,-0.07989423722028732
733,565,0.22525127232074738,0.15896819531917572,-999.9607543945312,0.11580560356378555,0.09526669234037399,-0.07989423722028732
759,565,0.22525127232074738,0.15896819531917572,-999.9607543945312,0.11580560356378555,0.09526669234037399,-0.07989423722028732
744,565,0.22525127232074738,0.15896819531917572,-999.9607543945312,0.11580560356378555,0.09526669234037399,-0.07989423722028732
681,565,0.22525127232074738,0.15896819531917572,-999.9607543945312,0.11580560356378555,0.09526669234037399,-0.07989423722028732
664,565,0.22525127232074738,0.15896819531917572,-999.9607543945312,0.11580560356378555,0.09526669234037399,-0.07989423722028732
690,565,0.22525127232074738,0.15896819531917572,-999.9607543945312,0.11580560356378555,0.09526669234037399,-0.07989423722028732
675,565,0.22525127232074738,0.15896819531917572,-999.9607543945312,0.11580560356378555,0.09526669234037399,-0.07989423722028732
752,566,-0.18822208046913147,-0.5314233303070068,-1000.1270751953125,-0.03865205496549606,-0.06544577330350876,-0.045204345136880875
713,566,-0.18822208046913147,-0.5314233303070068,-1000.1270751953125,-0.03865205496549606,-0.06544577330350876,-0.045204345136880875
714,566,-0.18822208046913147,-0.5314233303070068,-1000.1270751953125,-0.03865205496549606,-0.06544577330350876,-0.045204345136880875
738,566,-0.18822208046913147,-0.5314233303070068,-1000.1270751953125,-0.03865205496549606,-0.06544577330350876,-0.045204345136880875
683,566,-0.18822208046913147,-0.5314233303070068,-1000.1270751953125,-0.03865205496549606,-0.06544577330350876,-0.045204345136880875
644,566,-0.18822208046913147,-0.5314233303070068,-1000.1270751953125,-0.03865205496549606,-0.06544577330350876,-0.045204345136880875
645,566,-0.18822208046913147,-0.5314233303070068,-1000.1270751953125,-0.03865205496549606,-0.06544577330350876,-0.045204345136880875
669,566,-0.18822208046913147,-0.5314233303070068,-1000.1270751953125,-0.03865205496549606,-0.06544577330350876,-0.045204345136880875
753,567,-0.14528518915176392,-0.3238455057144165,-1000.0819091796875,-0.07808809727430344,-0.010418097488582134,0.020250631496310234
731,567,-0.14528518915176392,-0.3238455057144165,-1000.0819091796875,-0.07808809727430344,-0.010418097488582134,0.020250631496310234
716,567,-0.14528518915176392,-0.3238455057144165,-1000.0819091796875,-0.07808809727430344,-0.010418097488582134,0.020250631496310234
737,567,-0.14528518915176392,-0.3238455057144165,-1000.0819091796875,-0.07808809727430344,-0.010418097488582134,0.020250631496310234
684,567,-0.14528518915176392,-0.3238455057144165,-1000.0819091796875,-0.07808809727430344,-0.010418097488582134,0.020250631496310234
662,567,-0.14528518915176392,-0.3238455057144165,-1000.0819091796875,-0.07808809727430344,-0.010418097488582134,0.020250631496310234
647,567,-0.14528518915176392,-0.3238455057144165,-1000.0819091796875,-0.07808809727430344,-0.010418097488582134,0.020250631496310234
668,567,-0.14528518915176392,-0.3238455057144165,-1000.0819091796875,-0.07808809727430344,-0.010418097488582134,0.020250631496310234
755,568,-0.08953119069337845,0.10837074369192123,-999.9945678710938,0.0056891837157309055,0.05053563788533211,-0.0009868806228041649
730,568,-0.08953119069337845,0.10837074369192123,-999.9945678710938,0.0056891837157309055,0.05053563788533211,-0.0009868806228041649
719,568,-0.08953119069337845,0.10837074369192123,-999.9945678710938,0.0056891837157309055,0.05053563788533211,-0.0009868806228041649
734,568,-0.08953119069337845,0.10837074369192123,-999.9945678710938,0.0056891837157309055,0.05053563788533211,-0.0009868806228041649
686,568,-0.08953119069337845,0.10837074369192123,-999.9945678710938,0.0056891837157309055,0.05053563788533211,-0.0009868806228041649
661,568,-0.08953119069337845,0.10837074369192123,-999.9945678710938,0.0056891837157309055,0.05053563788533211,-0.0009868806228041649
650,568,-0.08953119069337845,0.10837074369192123,-999.9945678710938,0.0056891837157309055,0.05053563788533211,-0.0009868806228041649
665,568,-0.08953119069337845,0.10837074369192123,-999.9945678710938,0.0056891837157309055,0.05053563788533211,-0.0009868806228041649
756,569,-0.16242730617523193,0.1033545583486557,-999.9613647460938,0.06288546323776245,0.08894842863082886,0.001792148221284151
720,569,-0.16242730617523193,0.1033545583486557,-999.9613647460938,0.06288546323776245,0.08894842863082886,0.001792148221284151
721,569,-0.16242730617523193,0.1033545583486557,-999.9613647460938,0.06288546323776245,0.08894842863082886,0.001792148221284151
741,569,-0.16242730617523193,0.1033545583486557,-999.9613647460938,0.06288546323776245,0.08894842863082886,0.001792148221284151
687,569,-0.16242730617523193,0.1033545583486557,-999.9613647460938,0.06288546323776245,0.08894842863082886,0.001792148221284151
651,569,-0.16242730617523193,0.1033545583486557,-999.9613647460938,0.06288546323776245,0.08894842863082886,0.001792148221284151
652,569,-0.16242730617523193,0.1033545583486557,-999.9613647460938,0.06288546323776245,0.08894842863082886,0.001792148221284151
672,569,-0.16242730617523193,0.1033545583486557,-999.9613647460938,0.06288546323776245,0.08894842863082886,0.001792148221284151
758,570,0.16939926147460938,0.01994997449219227,-999.97119140625,0.07409823685884476,0.022762486711144447,-0.02028578892350197
723,570,0.16939926147460938,0.01994997449219227,-999.97119140625,0.07409823685884476,0.022762486711144447,-0.02028578892350197
728,570,0.16939926147460938,0.01994997449219227,-999.97119140625,0.07409823685884476,0.022762486711144447,-0.02028578892350197
740,570,0.16939926147460938,0.01994997449219227,-999.97119140625,0.07409823685884476,0.022762486711144447,-0.02028578892350197
689,570,0.16939926147460938,0.01994997449219227,-999.97119140625,0.07409823685884476,0.022762486711144447,-0.02028578892350197
654,570,0.16939926147460938,0.01994997449219227,-999.97119140625,0.07409823685884476,0.022762486711144447,-0.02028578892350197
659,570,0.16939926147460938,0.01994997449219227,-999.97119140625,0.07409823685884476,0.022762486711144447,-0.02028578892350197
671,570,0.16939926147460938,0.01994997449219227,-999.97119140625,0.07409823685884476,0.022762486711144447,-0.02028578892350197
783,571,-0.05344508960843086,-0.27459898591041565,-1000.0023193359375,-0.015486237592995167,-0.007777005899697542,-0.0013156866189092398
772,571,-0.05344508960843086,-0.27459898591041565,-1000.0023193359375,-0.015486237592995167,-0.007777005899697542,-0.0013156866189092398
771,571,-0.05344508960843086,-0.27459898591041565,-1000.0023193359375,-0.015486237592995167,-0.007777005899697542,-0.0013156866189092398
800,571,-0.05344508960843086,-0.27459898591041565,-1000.0023193359375,-0.015486237592995167,-0.007777005899697542,-0.0013156866189092398
714,571,-0.05344508960843086,-0.27459898591041565,-1000.0023193359375,-0.015486237592995167,-0.007777005899697542,-0.0013156866189092398
703,571,-0.05344508960843086,-0.27459898591041565,-1000.0023193359375,-0.015486237592995167,-0.007777005899697542,-0.0013156866189092398
702,571,-0.05344508960843086,-0.27459898591041565,-1000.0023193359375,-0.015486237592995167,-0.007777005899697542,-0.0013156866189092398
731,571,-0.05344508960843086,-0.27459898591041565,-1000.0023193359375,-0.015486237592995167,-0.007777005899697542,-0.0013156866189092398
800,572,-0.084935761988163,-0.28308624029159546,-999.9959106445312,0.029361726716160774,1.6139709941853653e-06,0.024958893656730652
771,572,-0.084935761988163,-0.28308624029159546,-999.9959106445312,0.029361726716160774,1.6139709941853653e-06,0.024958893656730652
780,572,-0.084935761988163,-0.28308624029159546,-999.9959106445312,0.029361726716160774,1.6139709941853653e-06,0.024958893656730652
785,572,-0.084935761988163,-0.28308624029159546,-999.9959106445312,0.029361726716160774,1.6139709941853653e-06,0.024958893656730652
731,572,-0.084935761988163,-0.28308624029159546,-999.9959106445312,0.029361726716160774,1.6139709941853653e-06,0.024958893656730652
702,572,-0.084935761988163,-0.28308624029159546,-999.9959106445312,0.029361726716160774,1.6139709941853653e-06,0.024958893656730652
711,572,-0.084935761988163,-0.28308624029159546,-999.9959106445312,0.029361726716160774,1.6139709941853653e-06,0.024958893656730652
716,572,-0.084935761988163,-0.28308624029159546,-999.9959106445312,0.029361726716160774,1.6139709941853653e-06,0.024958893656730652
781,573,-0.035537686198949814,-0.011012077331542969,-1000.0023803710938,0.029704147949814796,-0.011766518466174603,0.0034737437963485718
801,573,-0.035537686198949814,-0.011012077331542969,-1000.0023803710938,0.029704147949814796,-0.011766518466174603,0.0034737437963485718
784,573,-0.035537686198949814,-0.011012077331542969,-1000.0023803710938,0.029704147949814796,-0.011766518466174603,0.0034737437963485718
774,573,-0.035537686198949814,-0.011012077331542969,-1000.0023803710938,0.029704147949814796,-0.011766518466174603,0.0034737437963485718
712,573,-0.035537686198949814,-0.011012077331542969,-1000.0023803710938,0.029704147949814796,-0.011766518466174603,0.0034737437963485718
732,573,-0.035537686198949814,-0.011012077331542969,-1000.0023803710938,0.029704147949814796,-0.011766518466174603,0.0034737437963485718
715,573,-0.035537686198949814,-0.011012077331542969,-1000.0023803710938,0.029704147949814796,-0.011766518466174603,0.0034737437963485718
705,573,-0.035537686198949814,-0.011012077331542969,-1000.0023803710938,0.029704147949814796,-0.011766518466174603,0.0034737437963485718
772,574,-0.09321367740631104,-0.28134310245513916,-1000.0071411132812,0.06851087510585785,-0.014435335993766785,0.015121875330805779
783,574,-0.09321367740631104,-0.28134310245513916,-1000.0071411132812,0.06851087510585785,-0.014435335993766785,0.015121875330805779
782,574,-0.09321367740631104,-0.28134310245513916,-1000.0071411132812,0.06851087510585785,-0.014435335993766785,0.015121875330805779
773,574,-0.09321367740631104,-0.28134310245513916,-1000.0071411132812,0.06851087510585785,-0.014435335993766785,0.015121875330805779
703,574,-0.09321367740631104,-0.28134310245513916,-1000.0071411132812,0.06851087510585785,-0.014435335993766785,0.015121875330805779
714,574,-0.09321367740631104,-0.28134310245513916,-1000.0071411132812,0.06851087510585785,-0.014435335993766785,0.015121875330805779
713,574,-0.09321367740631104,-0.28134310245513916,-1000.0071411132812,0.06851087510585785,-0.014435335993766785,0.015121875330805779
704,574,-0.09321367740631104,-0.28134310245513916,-1000.0071411132812,0.06851087510585785,-0.014435335993766785,0.015121875330805779
811,575,-0.07175664603710175,-0.04323279857635498,-1000.004638671875,-0.04619370773434639,0.005356168374419212,0.04945383593440056
824,575,-0.07175664603710175,-0.04323279857635498,-1000.004638671875,-0.04619370773434639,0.005356168374419212,0.04945383593440056
803,575,-0.07175664603710175,-0.04323279857635498,-1000.004638671875,-0.04619370773434639,0.005356168374419212,0.04945383593440056
814,575,-0.07175664603710175,-0.04323279857635498,-1000.004638671875,-0.04619370773434639,0.005356168374419212,0.04945383593440056
742,575,-0.07175664603710175,-0.04323279857635498,-1000.004638671875,-0.04619370773434639,0.005356168374419212,0.04945383593440056
755,575,-0.07175664603710175,-0.04323279857635498,-1000.004638671875,-0.04619370773434639,0.005356168374419212,0.04945383593440056
734,575,-0.07175664603710175,-0.04323279857635498,-1000.004638671875,-0.04619370773434639,0.005356168374419212,0.04945383593440056
745,575,-0.07175664603710175,-0.04323279857635498,-1000.004638671875,-0.04619370773434639,0.005356168374419212,0.04945383593440056
827,576,0.3222437798976898,0.3686486482620239,-999.9557495117188,0.01476550567895174,0.010817479342222214,-0.01697978377342224
805,576,0.3222437798976898,0.3686486482620239,-999.9557495117188,0.01476550567895174,0.010817479342222214,-0.01697978377342224
791,576,0.3222437798976898,0.3686486482620239,-999.9557495117188,0.01476550567895174,0.010817479342222214,-0.01697978377342224
792,576,0.3222437798976898,0.3686486482620239,-999.9557495117188,0.01476550567895174,0.010817479342222214,-0.01697978377342224
758,576,0.3222437798976898,0.3686486482620239,-999.9557495117188,0.01476550567895174,0.010817479342222214,-0.01697978377342224
736,576,0.3222437798976898,0.3686486482620239,-999.9557495117188,0.01476550567895174,0.010817479342222214,-0.01697978377342224
722,576,0.3222437798976898,0.3686486482620239,-999.9557495117188,0.01476550567895174,0.010817479342222214,-0.01697978377342224
723,576,0.3222437798976898,0.3686486482620239,-999.9557495117188,0.01476550567895174,0.010817479342222214,-0.01697978377342224
815,577,0.13015705347061157,0.1997787356376648,-999.9805908203125,-0.04827425256371498,-0.05097801983356476,-0.04904848337173462
812,577,0.13015705347061157,0.1997787356376648,-999.9805908203125,-0.04827425256371498,-0.05097801983356476,-0.04904848337173462
811,577,0.13015705347061157,0.1997787356376648,-999.9805908203125,-0.04827425256371498,-0.05097801983356476,-0.04904848337173462
814,577,0.13015705347061157,0.1997787356376648,-999.9805908203125,-0.04827425256371498,-0.05097801983356476,-0.04904848337173462
746,577,0.13015705347061157,0.1997787356376648,-999.9805908203125,-0.04827425256371498,-0.05097801983356476,-0.04904848337173462
743,577,0.13015705347061157,0.1997787356376648,-999.9805908203125,-0.04827425256371498,-0.05097801983356476,-0.04904848337173462
742,577,0.13015705347061157,0.1997787356376648,-999.9805908203125,-0.04827425256371498,-0.05097801983356476,-0.04904848337173462
745,577,0.13015705347061157,0.1997787356376648,-999.9805908203125,-0.04827425256371498,-0.05097801983356476,-0.04904848337173462
806,578,-0.219780832529068,-0.3808116912841797,-1000.0350341796875,-0.04638374596834183,0.05841682851314545,0.03829894959926605
823,578,-0.219780832529068,-0.3808116912841797,-1000.0350341796875,-0.04638374596834183,0.05841682851314545,0.03829894959926605
811,578,-0.219780832529068,-0.3808116912841797,-1000.0350341796875,-0.04638374596834183,0.05841682851314545,0.03829894959926605
812,578,-0.219780832529068,-0.3808116912841797,-1000.0350341796875,-0.04638374596834183,0.05841682851314545,0.03829894959926605
737,578,-0.219780832529068,-0.3808116912841797,-1000.0350341796875,-0.04638374596834183,0.05841682851314545,0.03829894959926605
754,578,-0.219780832529068,-0.3808116912841797,-1000.0350341796875,-0.04638374596834183,0.05841682851314545,0.03829894959926605
742,578,-0.219780832529068,-0.3808116912841797,-1000.0350341796875,-0.04638374596834183,0.05841682851314545,0.03829894959926605
743,578,-0.219780832529068,-0.3808116912841797,-1000.0350341796875,-0.04638374596834183,0.05841682851314545,0.03829894959926605
786,579,0.07708518952131271,0.11716236919164658,-1000.020263671875,0.03861606493592262,0.03551845625042915,-0.04548775032162666
799,579,0.07708518952131271,0.11716236919164658,-1000.020263671875,0.03861606493592262,0.03551845625042915,-0.04548775032162666
824,579,0.07708518952131271,0.11716236919164658,-1000.020263671875,0.03861606493592262,0.03551845625042915,-0.04548775032162666
811,579,0.07708518952131271,0.11716236919164658,-1000.020263671875,0.03861606493592262,0.03551845625042915,-0.04548775032162666
717,579,0.07708518952131271,0.11716236919164658,-1000.020263671875,0.03861606493592262,0.03551845625042915,-0.04548775032162666
730,579,0.07708518952131271,0.11716236919164658,-1000.020263671875,0.03861606493592262,0.03551845625042915,-0.04548775032162666
755,579,0.07708518952131271,0.11716236919164658,-1000.020263671875,0.03861606493592262,0.03551845625042915,-0.04548775032162666
742,579,0.07708518952131271,0.11716236919164658,-1000.020263671875,0.03861606493592262,0.03551845625042915,-0.04548775032162666
826,580,0.46200764179229736,0.24267061054706573,-999.944580078125,0.11233653873205185,0.05868431180715561,0.05998329445719719
810,580,0.46200764179229736,0.24267061054706573,-999.944580078125,0.11233653873205185,0.05868431180715561,0.05998329445719719
790,580,0.46200764179229736,0.24267061054706573,-999.944580078125,0.11233653873205185,0.05868431180715561,0.05998329445719719
798,580,0.46200764179229736,0.24267061054706573,-999.944580078125,0.11233653873205185,0.05868431180715561,0.05998329445719719
757,580,0.46200764179229736,0.24267061054706573,-999.944580078125,0.11233653873205185,0.05868431180715561,0.05998329445719719
741,580,0.46200764179229736,0.24267061054706573,-999.944580078125,0.11233653873205185,0.05868431180715561,0.05998329445719719
721,580,0.46200764179229736,0.24267061054706573,-999.944580078125,0.11233653873205185,0.05868431180715561,0.05998329445719719
729,580,0.46200764179229736,0.24267061054706573,-999.944580078125,0.11233653873205185,0.05868431180715561,0.05998329445719719
820,581,-0.12365297228097916,-0.21571756899356842,-1000.0550537109375,-0.05705375596880913,-0.1299436390399933,0.065617136657238
815,581,-0.12365297228097916,-0.21571756899356842,-1000.0550537109375,-0.05705375596880913,-0.1299436390399933,0.065617136657238
794,581,-0.12365297228097916,-0.21571756899356842,-1000.0550537109375,-0.05705375596880913,-0.1299436390399933,0.065617136657238
808,581,-0.12365297228097916,-0.21571756899356842,-1000.0550537109375,-0.05705375596880913,-0.1299436390399933,0.065617136657238
751,581,-0.12365297228097916,-0.21571756899356842,-1000.0550537109375,-0.05705375596880913,-0.1299436390399933,0.065617136657238
746,581,-0.12365297228097916,-0.21571756899356842,-1000.0550537109375,-0.05705375596880913,-0.1299436390399933,0.065617136657238
725,581,-0.12365297228097916,-0.21571756899356842,-1000.0550537109375,-0.05705375596880913,-0.1299436390399933,0.065617136657238
739,581,-0.12365297228097916,-0.21571756899356842,-1000.0550537109375,-0.05705375596880913,-0.1299436390399933,0.065617136657238
794,582,0.23989400267601013,0.14115460216999054,-1000.0026245117188,0.15046237409114838,-0.00024080820730887353,0.03336760029196739
809,582,0.23989400267601013,0.14115460216999054,-1000.0026245117188,0.15046237409114838,-0.00024080820730887353,0.03336760029196739
817,582,0.23989400267601013,0.14115460216999054,-1000.0026245117188,0.15046237409114838,-0.00024080820730887353,0.03336760029196739
818,582,0.23989400267601013,0.14115460216999054,-1000.0026245117188,0.15046237409114838,-0.00024080820730887353,0.03336760029196739
725,582,0.23989400267601013,0.14115460216999054,-1000.0026245117188,0.15046237409114838,-0.00024080820730887353,0.03336760029196739
740,582,0.23989400267601013,0.14115460216999054,-1000.0026245117188,0.15046237409114838,-0.00024080820730887353,0.03336760029196739
748,582,0.23989400267601013,0.14115460216999054,-1000.0026245117188,0.15046237409114838,-0.00024080820730887353,0.03336760029196739
749,582,0.23989400267601013,0.14115460216999054,-1000.0026245117188,0.15046237409114838,-0.00024080820730887353,0.03336760029196739
801,583,0.0034388448111712933,-0.06567388027906418,-1000.1202392578125,-0.20757725834846497,0.009269312024116516,-0.07311440259218216
782,583,0.0034388448111712933,-0.06567388027906418,-1000.1202392578125,-0.20757725834846497,0.009269312024116516,-0.07311440259218216
821,583,0.0034388448111712933,-0.06567388027906418,-1000.1202392578125,-0.20757725834846497,0.009269312024116516,-0.07311440259218216
804,583,0.0034388448111712933,-0.06567388027906418,-1000.1202392578125,-0.20757725834846497,0.009269312024116516,-0.07311440259218216
732,583,0.0034388448111712933,-0.06567388027906418,-1000.1202392578125,-0.20757725834846497,0.009269312024116516,-0.07311440259218216
713,583,0.0034388448111712933,-0.06567388027906418,-1000.1202392578125,-0.20757725834846497,0.009269312024116516,-0.07311440259218216
752,583,0.0034388448111712933,-0.06567388027906418,-1000.1202392578125,-0.20757725834846497,0.009269312024116516,-0.07311440259218216
735,583,0.0034388448111712933,-0.06567388027906418,-1000.1202392578125,-0.20757725834846497,0.009269312024116516,-0.07311440259218216
828,584,0.1770547777414322,0.3536650240421295,-999.8980712890625,-0.01697634905576706,0.023895973339676857,0.06964284926652908
784,584,0.1770547777414322,0.3536650240421295,-999.8980712890625,-0.01697634905576706,0.023895973339676857,0.06964284926652908
801,584,0.1770547777414322,0.3536650240421295,-999.8980712890625,-0.01697634905576706,0.023895973339676857,0.06964284926652908
804,584,0.1770547777414322,0.3536650240421295,-999.8980712890625,-0.01697634905576706,0.023895973339676857,0.06964284926652908
759,584,0.1770547777414322,0.3536650240421295,-999.8980712890625,-0.01697634905576706,0.023895973339676857,0.06964284926652908
715,584,0.1770547777414322,0.3536650240421295,-999.8980712890625,-0.01697634905576706,0.023895973339676857,0.06964284926652908
732,584,0.1770547777414322,0.3536650240421295,-999.8980712890625,-0.01697634905576706,0.023895973339676857,0.06964284926652908
735,584,0.1770547777414322,0.3536650240421295,-999.8980712890625,-0.01697634905576706,0.023895973339676857,0.06964284926652908
788,585,0.2213272601366043,0.17614853382110596,-999.9679565429688,0.027198096737265587,0.05355044826865196,-0.03372182324528694
789,585,0.2213272601366043,0.17614853382110596,-999.9679565429688,0.027198096737265587,0.05355044826865196,-0.03372182324528694
825,585,0.2213272601366043,0.17614853382110596,-999.9679565429688,0.027198096737265587,0.05355044826865196,-0.03372182324528694
803,585,0.2213272601366043,0.17614853382110596,-999.9679565429688,0.027198096737265587,0.05355044826865196,-0.03372182324528694
719,585,0.2213272601366043,0.17614853382110596,-999.9679565429688,0.027198096737265587,0.05355044826865196,-0.03372182324528694
720,585,0.2213272601366043,0.17614853382110596,-999.9679565429688,0.027198096737265587,0.05355044826865196,-0.03372182324528694
756,585,0.2213272601366043,0.17614853382110596,-999.9679565429688,0.027198096737265587,0.05355044826865196,-0.03372182324528694
734,585,0.2213272601366043,0.17614853382110596,-999.9679565429688,0.027198096737265587,0.05355044826865196,-0.03372182324528694
773,586,-0.12002573907375336,-0.2648634910583496,-1000.000244140625,0.10999726504087448,-0.002543011447414756,-0.00973784551024437
782,586,-0.12002573907375336,-0.2648634910583496,-1000.000244140625,0.10999726504087448,-0.002543011447414756,-0.00973784551024437
801,586,-0.12002573907375336,-0.2648634910583496,-1000.000244140625,0.10999726504087448,-0.002543011447414756,-0.00973784551024437
781,586,-0.12002573907375336,-0.2648634910583496,-1000.000244140625,0.10999726504087448,-0.002543011447414756,-0.00973784551024437
704,586,-0.12002573907375336,-0.2648634910583496,-1000.000244140625,0.10999726504087448,-0.002543011447414756,-0.00973784551024437
713,586,-0.12002573907375336,-0.2648634910583496,-1000.000244140625,0.10999726504087448,-0.002543011447414756,-0.00973784551024437
732,586,-0.12002573907375336,-0.2648634910583496,-1000.000244140625,0.10999726504087448,-0.002543011447414756,-0.00973784551024437
712,586,-0.12002573907375336,-0.2648634910583496,-1000.000244140625,0.10999726504087448,-0.002543011447414756,-0.00973784551024437
770,587,-0.11500006914138794,-0.3636046051979065,-1000.0120849609375,-0.04420067369937897,0.007512812502682209,0.003994292113929987
816,587,-0.11500006914138794,-0.3636046051979065,-1000.0120849609375,-0.04420067369937897,0.007512812502682209,0.003994292113929987
785,587,-0.11500006914138794,-0.3636046051979065,-1000.0120849609375,-0.04420067369937897,0.007512812502682209,0.003994292113929987
780,587,-0.11500006914138794,-0.3636046051979065,-1000.0120849609375,-0.04420067369937897,0.007512812502682209,0.003994292113929987
701,587,-0.11500006914138794,-0.3636046051979065,-1000.0120849609375,-0.04420067369937897,0.007512812502682209,0.003994292113929987
747,587,-0.11500006914138794,-0.3636046051979065,-1000.0120849609375,-0.04420067369937897,0.007512812502682209,0.003994292113929987
716,587,-0.11500006914138794,-0.3636046051979065,-1000.0120849609375,-0.04420067369937897,0.007512812502682209,0.003994292113929987
711,587,-0.11500006914138794,-0.3636046051979065,-1000.0120849609375,-0.04420067369937897,0.007512812502682209,0.003994292113929987
786,588,-0.11787328124046326,-0.009805498644709587,-1000.0066528320312,-0.037321753799915314,-0.0030957297421991825,0.00842528697103262
769,588,-0.11787328124046326,-0.009805498644709587,-1000.0066528320312,-0.037321753799915314,-0.0030957297421991825,0.00842528697103262
779,588,-0.11787328124046326,-0.009805498644709587,-1000.0066528320312,-0.037321753799915314,-0.0030957297421991825,0.00842528697103262
799,588,-0.11787328124046326,-0.009805498644709587,-1000.0066528320312,-0.037321753799915314,-0.0030957297421991825,0.00842528697103262
717,588,-0.11787328124046326,-0.009805498644709587,-1000.0066528320312,-0.037321753799915314,-0.0030957297421991825,0.00842528697103262
700,588,-0.11787328124046326,-0.009805498644709587,-1000.0066528320312,-0.037321753799915314,-0.0030957297421991825,0.00842528697103262
710,588,-0.11787328124046326,-0.009805498644709587,-1000.0066528320312,-0.037321753799915314,-0.0030957297421991825,0.00842528697103262
730,588,-0.11787328124046326,-0.009805498644709587,-1000.0066528320312,-0.037321753799915314,-0.0030957297421991825,0.00842528697103262
787,589,-0.07294169813394547,-0.03171370550990105,-999.9925537109375,-0.008299116976559162,-0.005592534318566322,-0.0007220394909381866
775,589,-0.07294169813394547,-0.03171370550990105,-999.9925537109375,-0.008299116976559162,-0.005592534318566322,-0.0007220394909381866
774,589,-0.07294169813394547,-0.03171370550990105,-999.9925537109375,-0.008299116976559162,-0.005592534318566322,-0.0007220394909381866
784,589,-0.07294169813394547,-0.03171370550990105,-999.9925537109375,-0.008299116976559162,-0.005592534318566322,-0.0007220394909381866
718,589,-0.07294169813394547,-0.03171370550990105,-999.9925537109375,-0.008299116976559162,-0.005592534318566322,-0.0007220394909381866
706,589,-0.07294169813394547,-0.03171370550990105,-999.9925537109375,-0.008299116976559162,-0.005592534318566322,-0.0007220394909381866
705,589,-0.07294169813394547,-0.03171370550990105,-999.9925537109375,-0.008299116976559162,-0.005592534318566322,-0.0007220394909381866
715,589,-0.07294169813394547,-0.03171370550990105,-999.9925537109375,-0.008299116976559162,-0.005592534318566322,-0.0007220394909381866
799,590,-0.060341473668813705,-0.0013713398948311806,-999.9893798828125,0.01068903412669897,0.005922631826251745,-0.005190195050090551
779,590,-0.060341473668813705,-0.0013713398948311806,-999.9893798828125,0.01068903412669897,0.005922631826251745,-0.005190195050090551
768,590,-0.060341473668813705,-0.0013713398948311806,-999.9893798828125,0.01068903412669897,0.005922631826251745,-0.005190195050090551
788,590,-0.060341473668813705,-0.0013713398948311806,-999.9893798828125,0.01068903412669897,0.005922631826251745,-0.005190195050090551
730,590,-0.060341473668813705,-0.0013713398948311806,-999.9893798828125,0.01068903412669897,0.005922631826251745,-0.005190195050090551
710,590,-0.060341473668813705,-0.0013713398948311806,-999.9893798828125,0.01068903412669897,0.005922631826251745,-0.005190195050090551
699,590,-0.060341473668813705,-0.0013713398948311806,-999.9893798828125,0.01068903412669897,0.005922631826251745,-0.005190195050090551
719,590,-0.060341473668813705,-0.0013713398948311806,-999.9893798828125,0.01068903412669897,0.005922631826251745,-0.005190195050090551
823,591,0.13876809179782867,0.12446428835391998,-999.95556640625,0.13963039219379425,-0.01773064024746418,0.01814301684498787
816,591,0.13876809179782867,0.12446428835391998,-999.95556640625,0.13963039219379425,-0.01773064024746418,0.01814301684498787
786,591,0.13876809179782867,0.12446428835391998,-999.95556640625,0.13963039219379425,-0.01773064024746418,0.01814301684498787
811,591,0.13876809179782867,0.12446428835391998,-999.95556640625,0.13963039219379425,-0.01773064024746418,0.01814301684498787
754,591,0.13876809179782867,0.12446428835391998,-999.95556640625,0.13963039219379425,-0.01773064024746418,0.01814301684498787
747,591,0.13876809179782867,0.12446428835391998,-999.95556640625,0.13963039219379425,-0.01773064024746418,0.01814301684498787
717,591,0.13876809179782867,0.12446428835391998,-999.95556640625,0.13963039219379425,-0.01773064024746418,0.01814301684498787
742,591,0.13876809179782867,0.12446428835391998,-999.95556640625,0.13963039219379425,-0.01773064024746418,0.01814301684498787
788,592,-0.12257999926805496,0.0017933612689375877,-1000.012451171875,0.03408467769622803,0.0009155248990282416,0.014789476059377193
768,592,-0.12257999926805496,0.0017933612689375877,-1000.012451171875,0.03408467769622803,0.0009155248990282416,0.014789476059377193
767,592,-0.12257999926805496,0.0017933612689375877,-1000.012451171875,0.03408467769622803,0.0009155248990282416,0.014789476059377193
789,592,-0.12257999926805496,0.0017933612689375877,-1000.012451171875,0.03408467769622803,0.0009155248990282416,0.014789476059377193
719,592,-0.12257999926805496,0.0017933612689375877,-1000.012451171875,0.03408467769622803,0.0009155248990282416,0.014789476059377193
699,592,-0.12257999926805496,0.0017933612689375877,-1000.012451171875,0.03408467769622803,0.0009155248990282416,0.014789476059377193
698,592,-0.12257999926805496,0.0017933612689375877,-1000.012451171875,0.03408467769622803,0.0009155248990282416,0.014789476059377193
720,592,-0.12257999926805496,0.0017933612689375877,-1000.012451171875,0.03408467769622803,0.0009155248990282416,0.014789476059377193
789,593,-0.2092561572790146,-0.07594873011112213,-999.986572265625,-0.02578115090727806,0.007298170123249292,-0.011825676076114178
767,593,-0.2092561572790146,-0.07594873011112213,-999.986572265625,-0.02578115090727806,0.007298170123249292,-0.011825676076114178
766,593,-0.2092561572790146,-0.07594873011112213,-999.986572265625,-0.02578115090727806,0.007298170123249292,-0.011825676076114178
790,593,-0.2092561572790146,-0.07594873011112213,-999.986572265625,-0.02578115090727806,0.007298170123249292,-0.011825676076114178
720,593,-0.2092561572790146,-0.07594873011112213,-999.986572265625,-0.02578115090727806,0.007298170123249292,-0.011825676076114178
698,593,-0.2092561572790146,-0.07594873011112213,-999.986572265625,-0.02578115090727806,0.007298170123249292,-0.011825676076114178
697,593,-0.2092561572790146,-0.07594873011112213,-999.986572265625,-0.02578115090727806,0.007298170123249292,-0.011825676076114178
721,593,-0.2092561572790146,-0.07594873011112213,-999.986572265625,-0.02578115090727806,0.007298170123249292,-0.011825676076114178
820,594,0.06398730725049973,-0.1798492968082428,-999.9615478515625,-0.03849908709526062,0.006050776224583387,-0.09375552088022232
808,594,0.06398730725049973,-0.1798492968082428,-999.9615478515625,-0.03849908709526062,0.006050776224583387,-0.09375552088022232
819,594,0.06398730725049973,-0.1798492968082428,-999.9615478515625,-0.03849908709526062,0.006050776224583387,-0.09375552088022232
813,594,0.06398730725049973,-0.1798492968082428,-999.9615478515625,-0.03849908709526062,0.006050776224583387,-0.09375552088022232
751,594,0.06398730725049973,-0.1798492968082428,-999.9615478515625,-0.03849908709526062,0.006050776224583387,-0.09375552088022232
739,594,0.06398730725049973,-0.1798492968082428,-999.9615478515625,-0.03849908709526062,0.006050776224583387,-0.09375552088022232
750,594,0.06398730725049973,-0.1798492968082428,-999.9615478515625,-0.03849908709526062,0.006050776224583387,-0.09375552088022232
744,594,0.06398730725049973,-0.1798492968082428,-999.9615478515625,-0.03849908709526062,0.006050776224583387,-0.09375552088022232
775,595,-0.08881547302007675,-0.02956927940249443,-1000.0062866210938,-0.07761506736278534,-0.004695191513746977,0.012136511504650116
787,595,-0.08881547302007675,-0.02956927940249443,-1000.0062866210938,-0.07761506736278534,-0.004695191513746977,0.012136511504650116
795,595,-0.08881547302007675,-0.02956927940249443,-1000.0062866210938,-0.07761506736278534,-0.004695191513746977,0.012136511504650116
760,595,-0.08881547302007675,-0.02956927940249443,-1000.0062866210938,-0.07761506736278534,-0.004695191513746977,0.012136511504650116
706,595,-0.08881547302007675,-0.02956927940249443,-1000.0062866210938,-0.07761506736278534,-0.004695191513746977,0.012136511504650116
718,595,-0.08881547302007675,-0.02956927940249443,-1000.0062866210938,-0.07761506736278534,-0.004695191513746977,0.012136511504650116
726,595,-0.08881547302007675,-0.02956927940249443,-1000.0062866210938,-0.07761506736278534,-0.004695191513746977,0.012136511504650116
691,595,-0.08881547302007675,-0.02956927940249443,-1000.0062866210938,-0.07761506736278534,-0.004695191513746977,0.012136511504650116
790,596,-0.14161956310272217,0.01803167536854744,-1000.0142211914062,0.004734490532428026,-0.0011424102121964097,-0.0034591183066368103
766,596,-0.14161956310272217,0.01803167536854744,-1000.0142211914062,0.004734490532428026,-0.0011424102121964097,-0.0034591183066368103
778,596,-0.14161956310272217,0.01803167536854744,-1000.0142211914062,0.004734490532428026,-0.0011424102121964097,-0.0034591183066368103
798,596,-0.14161956310272217,0.01803167536854744,-1000.0142211914062,0.004734490532428026,-0.0011424102121964097,-0.0034591183066368103
721,596,-0.14161956310272217,0.01803167536854744,-1000.0142211914062,0.004734490532428026,-0.0011424102121964097,-0.0034591183066368103
697,596,-0.14161956310272217,0.01803167536854744,-1000.0142211914062,0.004734490532428026,-0.0011424102121964097,-0.0034591183066368103
709,596,-0.14161956310272217,0.01803167536854744,-1000.0142211914062,0.004734490532428026,-0.0011424102121964097,-0.0034591183066368103
729,596,-0.14161956310272217,0.01803167536854744,-1000.0142211914062,0.004734490532428026,-0.0011424102121964097,-0.0034591183066368103
798,597,-0.1744912713766098,-0.10049857944250107,-999.9860229492188,0.06300029903650284,0.00966754648834467,-0.0074578034691512585
778,597,-0.1744912713766098,-0.10049857944250107,-999.9860229492188,0.06300029903650284,0.00966754648834467,-0.0074578034691512585
765,597,-0.1744912713766098,-0.10049857944250107,-999.9860229492188,0.06300029903650284,0.00966754648834467,-0.0074578034691512585
791,597,-0.1744912713766098,-0.10049857944250107,-999.9860229492188,0.06300029903650284,0.00966754648834467,-0.0074578034691512585
729,597,-0.1744912713766098,-0.10049857944250107,-999.9860229492188,0.06300029903650284,0.00966754648834467,-0.0074578034691512585
709,597,-0.1744912713766098,-0.10049857944250107,-999.9860229492188,0.06300029903650284,0.00966754648834467,-0.0074578034691512585
696,597,-0.1744912713766098,-0.10049857944250107,-999.9860229492188,0.06300029903650284,0.00966754648834467,-0.0074578034691512585
722,597,-0.1744912713766098,-0.10049857944250107,-999.9860229492188,0.06300029903650284,0.00966754648834467,-0.0074578034691512585
791,598,-0.09485726058483124,-0.1826104074716568,-1000.015869140625,0.07166653126478195,-0.0034079209435731173,0.010538541711866856
765,598,-0.09485726058483124,-0.1826104074716568,-1000.015869140625,0.07166653126478195,-0.0034079209435731173,0.010538541711866856
764,598,-0.09485726058483124,-0.1826104074716568,-1000.015869140625,0.07166653126478195,-0.0034079209435731173,0.010538541711866856
792,598,-0.09485726058483124,-0.1826104074716568,-1000.015869140625,0.07166653126478195,-0.0034079209435731173,0.010538541711866856
722,598,-0.09485726058483124,-0.1826104074716568,-1000.015869140625,0.07166653126478195,-0.0034079209435731173,0.010538541711866856
696,598,-0.09485726058483124,-0.1826104074716568,-1000.015869140625,0.07166653126478195,-0.0034079209435731173,0.010538541711866856
695,598,-0.09485726058483124,-0.1826104074716568,-1000.015869140625,0.07166653126478195,-0.0034079209435731173,0.010538541711866856
723,598,-0.09485726058483124,-0.1826104074716568,-1000.015869140625,0.07166653126478195,-0.0034079209435731173,0.010538541711866856
792,599,-0.016495322808623314,-0.11245190352201462,-999.9864501953125,-0.002661986742168665,0.014013165608048439,-0.01339899841696024
764,599,-0.016495322808623314,-0.11245190352201462,-999.9864501953125,-0.002661986742168665,0.014013165608048439,-0.01339899841696024
777,599,-0.016495322808623314,-0.11245190352201462,-999.9864501953125,-0.002661986742168665,0.014013165608048439,-0.01339899841696024
797,599,-0.016495322808623314,-0.11245190352201462,-999.9864501953125,-0.002661986742168665,0.014013165608048439,-0.01339899841696024
723,599,-0.016495322808623314,-0.11245190352201462,-999.9864501953125,-0.002661986742168665,0.014013165608048439,-0.01339899841696024
695,599,-0.016495322808623314,-0.11245190352201462,-999.9864501953125,-0.002661986742168665,0.014013165608048439,-0.01339899841696024
708,599,-0.016495322808623314,-0.11245190352201462,-999.9864501953125,-0.002661986742168665,0.014013165608048439,-0.01339899841696024
728,599,-0.016495322808623314,-0.11245190352201462,-999.9864501953125,-0.002661986742168665,0.014013165608048439,-0.01339899841696024
797,600,-0.02561163529753685,-0.09422452002763748,-1000.0081787109375,-0.025911124423146248,-0.017403310164809227,-0.0018877985421568155
777,600,-0.02561163529753685,-0.09422452002763748,-1000.0081787109375,-0.025911124423146248,-0.017403310164809227,-0.0018877985421568155
763,600,-0.02561163529753685,-0.09422452002763748,-1000.0081787109375,-0.025911124423146248,-0.017403310164809227,-0.0018877985421568155
793,600,-0.02561163529753685,-0.09422452002763748,-1000.0081787109375,-0.025911124423146248,-0.017403310164809227,-0.0018877985421568155
728,600,-0.02561163529753685,-0.09422452002763748,-1000.0081787109375,-0.025911124423146248,-0.017403310164809227,-0.0018877985421568155
708,600,-0.02561163529753685,-0.09422452002763748,-1000.0081787109375,-0.025911124423146248,-0.017403310164809227,-0.0018877985421568155
694,600,-0.02561163529753685,-0.09422452002763748,-1000.0081787109375,-0.025911124423146248,-0.017403310164809227,-0.0018877985421568155
724,600,-0.02561163529753685,-0.09422452002763748,-1000.0081787109375,-0.025911124423146248,-0.017403310164809227,-0.0018877985421568155
817,601,-0.28162965178489685,-0.29413139820098877,-1000.0067749023438,-0.11950593441724777,-0.00691906688734889,-0.017719833180308342
762,601,-0.28162965178489685,-0.29413139820098877,-1000.0067749023438,-0.11950593441724777,-0.00691906688734889,-0.017719833180308342
761,601,-0.28162965178489685,-0.29413139820098877,-1000.0067749023438,-0.11950593441724777,-0.00691906688734889,-0.017719833180308342
818,601,-0.28162965178489685,-0.29413139820098877,-1000.0067749023438,-0.11950593441724777,-0.00691906688734889,-0.017719833180308342
748,601,-0.28162965178489685,-0.29413139820098877,-1000.0067749023438,-0.11950593441724777,-0.00691906688734889,-0.017719833180308342
693,601,-0.28162965178489685,-0.29413139820098877,-1000.0067749023438,-0.11950593441724777,-0.00691906688734889,-0.017719833180308342
692,601,-0.28162965178489685,-0.29413139820098877,-1000.0067749023438,-0.11950593441724777,-0.00691906688734889,-0.017719833180308342
749,601,-0.28162965178489685,-0.29413139820098877,-1000.0067749023438,-0.11950593441724777,-0.00691906688734889,-0.017719833180308342
796,602,-0.004329517018049955,-0.07297166436910629,-999.994873046875,-0.020689036697149277,-0.004510422702878714,-0.007359717972576618
776,602,-0.004329517018049955,-0.07297166436910629,-999.994873046875,-0.020689036697149277,-0.004510422702878714,-0.007359717972576618
760,602,-0.004329517018049955,-0.07297166436910629,-999.994873046875,-0.020689036697149277,-0.004510422702878714,-0.007359717972576618
795,602,-0.004329517018049955,-0.07297166436910629,-999.994873046875,-0.020689036697149277,-0.004510422702878714,-0.007359717972576618
727,602,-0.004329517018049955,-0.07297166436910629,-999.994873046875,-0.020689036697149277,-0.004510422702878714,-0.007359717972576618
707,602,-0.004329517018049955,-0.07297166436910629,-999.994873046875,-0.020689036697149277,-0.004510422702878714,-0.007359717972576618
691,602,-0.004329517018049955,-0.07297166436910629,-999.994873046875,-0.020689036697149277,-0.004510422702878714,-0.007359717972576618
726,602,-0.004329517018049955,-0.07297166436910629,-999.994873046875,-0.020689036697149277,-0.004510422702878714,-0.007359717972576618
819,603,0.3233908712863922,0.4579683840274811,-999.8967895507812,0.07496106624603271,-0.016992921009659767,-0.006468560080975294
795,603,0.3233908712863922,0.4579683840274811,-999.8967895507812,0.07496106624603271,-0.016992921009659767,-0.006468560080975294
787,603,0.3233908712863922,0.4579683840274811,-999.8967895507812,0.07496106624603271,-0.016992921009659767,-0.006468560080975294
802,603,0.3233908712863922,0.4579683840274811,-999.8967895507812,0.07496106624603271,-0.016992921009659767,-0.006468560080975294
750,603,0.3233908712863922,0.4579683840274811,-999.8967895507812,0.07496106624603271,-0.016992921009659767,-0.006468560080975294
726,603,0.3233908712863922,0.4579683840274811,-999.8967895507812,0.07496106624603271,-0.016992921009659767,-0.006468560080975294
718,603,0.3233908712863922,0.4579683840274811,-999.8967895507812,0.07496106624603271,-0.016992921009659767,-0.006468560080975294
733,603,0.3233908712863922,0.4579683840274811,-999.8967895507812,0.07496106624603271,-0.016992921009659767,-0.006468560080975294
818,604,0.15607500076293945,0.3695027232170105,-999.9490966796875,0.045727986842393875,0.03830382972955704,-0.005756313446909189
796,604,0.15607500076293945,0.3695027232170105,-999.9490966796875,0.045727986842393875,0.03830382972955704,-0.005756313446909189
808,604,0.15607500076293945,0.3695027232170105,-999.9490966796875,0.045727986842393875,0.03830382972955704,-0.005756313446909189
794,604,0.15607500076293945,0.3695027232170105,-999.9490966796875,0.045727986842393875,0.03830382972955704,-0.005756313446909189
749,604,0.15607500076293945,0.3695027232170105,-999.9490966796875,0.045727986842393875,0.03830382972955704,-0.005756313446909189
727,604,0.15607500076293945,0.3695027232170105,-999.9490966796875,0.045727986842393875,0.03830382972955704,-0.005756313446909189
739,604,0.15607500076293945,0.3695027232170105,-999.9490966796875,0.045727986842393875,0.03830382972955704,-0.005756313446909189
725,604,0.15607500076293945,0.3695027232170105,-999.9490966796875,0.045727986842393875,0.03830382972955704,-0.005756313446909189
793,605,-0.13867640495300293,-0.1897573471069336,-1000.00048828125,-0.134308859705925,0.01925254613161087,-0.008216817863285542
763,605,-0.13867640495300293,-0.1897573471069336,-1000.00048828125,-0.134308859705925,0.01925254613161087,-0.008216817863285542
762,605,-0.13867640495300293,-0.1897573471069336,-1000.00048828125,-0.134308859705925,0.01925254613161087,-0.008216817863285542
817,605,-0.13867640495300293,-0.1897573471069336,-1000.00048828125,-0.134308859705925,0.01925254613161087,-0.008216817863285542
724,605,-0.13867640495300293,-0.1897573471069336,-1000.00048828125,-0.134308859705925,0.01925254613161087,-0.008216817863285542
694,605,-0.13867640495300293,-0.1897573471069336,-1000.00048828125,-0.134308859705925,0.01925254613161087,-0.008216817863285542
693,605,-0.13867640495300293,-0.1897573471069336,-1000.00048828125,-0.134308859705925,0.01925254613161087,-0.008216817863285542
748,605,-0.13867640495300293,-0.1897573471069336,-1000.00048828125,-0.134308859705925,0.01925254613161087,-0.008216817863285542
802,606,-0.03467604145407677,-0.37616318464279175,-1000.1142578125,0.011881393380463123,0.07843875139951706,-0.0738329067826271
787,606,-0.03467604145407677,-0.37616318464279175,-1000.1142578125,0.011881393380463123,0.07843875139951706,-0.0738329067826271
784,606,-0.03467604145407677,-0.37616318464279175,-1000.1142578125,0.011881393380463123,0.07843875139951706,-0.0738329067826271
828,606,-0.03467604145407677,-0.37616318464279175,-1000.1142578125,0.011881393380463123,0.07843875139951706,-0.0738329067826271
733,606,-0.03467604145407677,-0.37616318464279175,-1000.1142578125,0.011881393380463123,0.07843875139951706,-0.0738329067826271
718,606,-0.03467604145407677,-0.37616318464279175,-1000.1142578125,0.011881393380463123,0.07843875139951706,-0.0738329067826271
715,606,-0.03467604145407677,-0.37616318464279175,-1000.1142578125,0.011881393380463123,0.07843875139951706,-0.0738329067826271
759,606,-0.03467604145407677,-0.37616318464279175,-1000.1142578125,0.011881393380463123,0.07843875139951706,-0.0738329067826271
813,607,0.053707703948020935,0.12711262702941895,-999.983642578125,0.1376899927854538,-0.013263666070997715,-0.06006462872028351
828,607,0.053707703948020935,0.12711262702941895,-999.983642578125,0.1376899927854538,-0.013263666070997715,-0.06006462872028351
804,607,0.053707703948020935,0.12711262702941895,-999.983642578125,0.1376899927854538,-0.013263666070997715,-0.06006462872028351
812,607,0.053707703948020935,0.12711262702941895,-999.983642578125,0.1376899927854538,-0.013263666070997715,-0.06006462872028351
744,607,0.053707703948020935,0.12711262702941895,-999.983642578125,0.1376899927854538,-0.013263666070997715,-0.06006462872028351
759,607,0.053707703948020935,0.12711262702941895,-999.983642578125,0.1376899927854538,-0.013263666070997715,-0.06006462872028351
735,607,0.053707703948020935,0.12711262702941895,-999.983642578125,0.1376899927854538,-0.013263666070997715,-0.06006462872028351
743,607,0.053707703948020935,0.12711262702941895,-999.983642578125,0.1376899927854538,-0.013263666070997715,-0.06006462872028351
783,608,-0.03386503458023071,0.18973150849342346,-1000.121337890625,-0.09711533039808273,0.0106336185708642,-0.09163039177656174
800,608,-0.03386503458023071,0.18973150849342346,-1000.121337890625,-0.09711533039808273,0.0106336185708642,-0.09163039177656174
822,608,-0.03386503458023071,0.18973150849342346,-1000.121337890625,-0.09711533039808273,0.0106336185708642,-0.09163039177656174
807,608,-0.03386503458023071,0.18973150849342346,-1000.121337890625,-0.09711533039808273,0.0106336185708642,-0.09163039177656174
714,608,-0.03386503458023071,0.18973150849342346,-1000.121337890625,-0.09711533039808273,0.0106336185708642,-0.09163039177656174
731,608,-0.03386503458023071,0.18973150849342346,-1000.121337890625,-0.09711533039808273,0.0106336185708642,-0.09163039177656174
753,608,-0.03386503458023071,0.18973150849342346,-1000.121337890625,-0.09711533039808273,0.0106336185708642,-0.09163039177656174
738,608,-0.03386503458023071,0.18973150849342346,-1000.121337890625,-0.09711533039808273,0.0106336185708642,-0.09163039177656174
807,609,0.0458533801138401,-0.314253032207489,-1000.0047607421875,-0.020037472248077393,-0.021420523524284363,0.09630555659532547
822,609,0.0458533801138401,-0.314253032207489,-1000.0047607421875,-0.020037472248077393,-0.021420523524284363,0.09630555659532547
806,609,0.0458533801138401,-0.314253032207489,-1000.0047607421875,-0.020037472248077393,-0.021420523524284363,0.09630555659532547
812,609,0.0458533801138401,-0.314253032207489,-1000.0047607421875,-0.020037472248077393,-0.021420523524284363,0.09630555659532547
738,609,0.0458533801138401,-0.314253032207489,-1000.0047607421875,-0.020037472248077393,-0.021420523524284363,0.09630555659532547
753,609,0.0458533801138401,-0.314253032207489,-1000.0047607421875,-0.020037472248077393,-0.021420523524284363,0.09630555659532547
737,609,0.0458533801138401,-0.314253032207489,-1000.0047607421875,-0.020037472248077393,-0.021420523524284363,0.09630555659532547
743,609,0.0458533801138401,-0.314253032207489,-1000.0047607421875,-0.020037472248077393,-0.021420523524284363,0.09630555659532547
809,610,0.2431132048368454,0.2741042375564575,-999.975341796875,0.10650376975536346,0.003987806383520365,0.020913289859890938
797,610,0.2431132048368454,0.2741042375564575,-999.975341796875,0.10650376975536346,0.003987806383520365,0.020913289859890938
793,610,0.2431132048368454,0.2741042375564575,-999.975341796875,0.10650376975536346,0.003987806383520365,0.020913289859890938
817,610,0.2431132048368454,0.2741042375564575,-999.975341796875,0.10650376975536346,0.003987806383520365,0.020913289859890938
740,610,0.2431132048368454,0.2741042375564575,-999.975341796875,0.10650376975536346,0.003987806383520365,0.020913289859890938
728,610,0.2431132048368454,0.2741042375564575,-999.975341796875,0.10650376975536346,0.003987806383520365,0.020913289859890938
724,610,0.2431132048368454,0.2741042375564575,-999.975341796875,0.10650376975536346,0.003987806383520365,0.020913289859890938
748,610,0.2431132048368454,0.2741042375564575,-999.975341796875,0.10650376975536346,0.003987806383520365,0.020913289859890938
807,611,-0.1961560994386673,-0.3578283488750458,-1000.0335693359375,0.041879381984472275,-0.077365942299366,-0.00582636334002018
812,611,-0.1961560994386673,-0.3578283488750458,-1000.0335693359375,0.041879381984472275,-0.077365942299366,-0.00582636334002018
804,611,-0.1961560994386673,-0.3578283488750458,-1000.0335693359375,0.041879381984472275,-0.077365942299366,-0.00582636334002018
821,611,-0.1961560994386673,-0.3578283488750458,-1000.0335693359375,0.041879381984472275,-0.077365942299366,-0.00582636334002018
738,611,-0.1961560994386673,-0.3578283488750458,-1000.0335693359375,0.041879381984472275,-0.077365942299366,-0.00582636334002018
743,611,-0.1961560994386673,-0.3578283488750458,-1000.0335693359375,0.041879381984472275,-0.077365942299366,-0.00582636334002018
735,611,-0.1961560994386673,-0.3578283488750458,-1000.0335693359375,0.041879381984472275,-0.077365942299366,-0.00582636334002018
752,611,-0.1961560994386673,-0.3578283488750458,-1000.0335693359375,0.041879381984472275,-0.077365942299366,-0.00582636334002018
785,612,0.09371771663427353,0.47593846917152405,-1000.0408325195312,-0.027559813112020493,-0.038908958435058594,-0.05612281337380409
816,612,0.09371771663427353,0.47593846917152405,-1000.0408325195312,-0.027559813112020493,-0.038908958435058594,-0.05612281337380409
823,612,0.09371771663427353,0.47593846917152405,-1000.0408325195312,-0.027559813112020493,-0.038908958435058594,-0.05612281337380409
806,612,0.09371771663427353,0.47593846917152405,-1000.0408325195312,-0.027559813112020493,-0.038908958435058594,-0.05612281337380409
716,612,0.09371771663427353,0.47593846917152405,-1000.0408325195312,-0.027559813112020493,-0.038908958435058594,-0.05612281337380409
747,612,0.09371771663427353,0.47593846917152405,-1000.0408325195312,-0.027559813112020493,-0.038908958435058594,-0.05612281337380409
754,612,0.09371771663427353,0.47593846917152405,-1000.0408325195312,-0.027559813112020493,-0.038908958435058594,-0.05612281337380409
737,612,0.09371771663427353,0.47593846917152405,-1000.0408325195312,-0.027559813112020493,-0.038908958435058594,-0.05612281337380409
827,613,-0.22559764981269836,-0.23155635595321655,-999.9970092773438,-0.07865899801254272,0.03832528740167618,-0.08501701056957245
809,613,-0.22559764981269836,-0.23155635595321655,-999.9970092773438,-0.07865899801254272,0.03832528740167618,-0.08501701056957245
794,613,-0.22559764981269836,-0.23155635595321655,-999.9970092773438,-0.07865899801254272,0.03832528740167618,-0.08501701056957245
815,613,-0.22559764981269836,-0.23155635595321655,-999.9970092773438,-0.07865899801254272,0.03832528740167618,-0.08501701056957245
758,613,-0.22559764981269836,-0.23155635595321655,-999.9970092773438,-0.07865899801254272,0.03832528740167618,-0.08501701056957245
740,613,-0.22559764981269836,-0.23155635595321655,-999.9970092773438,-0.07865899801254272,0.03832528740167618,-0.08501701056957245
725,613,-0.22559764981269836,-0.23155635595321655,-999.9970092773438,-0.07865899801254272,0.03832528740167618,-0.08501701056957245
746,613,-0.22559764981269836,-0.23155635595321655,-999.9970092773438,-0.07865899801254272,0.03832528740167618,-0.08501701056957245
803,614,-0.3149530291557312,0.04337374120950699,-1000.0065307617188,-0.003058383474126458,0.058106355369091034,0.03383480757474899
825,614,-0.3149530291557312,0.04337374120950699,-1000.0065307617188,-0.003058383474126458,0.058106355369091034,0.03383480757474899
810,614,-0.3149530291557312,0.04337374120950699,-1000.0065307617188,-0.003058383474126458,0.058106355369091034,0.03383480757474899
814,614,-0.3149530291557312,0.04337374120950699,-1000.0065307617188,-0.003058383474126458,0.058106355369091034,0.03383480757474899
734,614,-0.3149530291557312,0.04337374120950699,-1000.0065307617188,-0.003058383474126458,0.058106355369091034,0.03383480757474899
756,614,-0.3149530291557312,0.04337374120950699,-1000.0065307617188,-0.003058383474126458,0.058106355369091034,0.03383480757474899
741,614,-0.3149530291557312,0.04337374120950699,-1000.0065307617188,-0.003058383474126458,0.058106355369091034,0.03383480757474899
745,614,-0.3149530291557312,0.04337374120950699,-1000.0065307617188,-0.003058383474126458,0.058106355369091034,0.03383480757474899
826,615,-0.09081673622131348,-0.07885972410440445,-1000.047607421875,-0.2181762009859085,-0.0726865902543068,0.0079646036028862
798,615,-0.09081673622131348,-0.07885972410440445,-1000.047607421875,-0.2181762009859085,-0.0726865902543068,0.0079646036028862
791,615,-0.09081673622131348,-0.07885972410440445,-1000.047607421875,-0.2181762009859085,-0.0726865902543068,0.0079646036028862
805,615,-0.09081673622131348,-0.07885972410440445,-1000.047607421875,-0.2181762009859085,-0.0726865902543068,0.0079646036028862
757,615,-0.09081673622131348,-0.07885972410440445,-1000.047607421875,-0.2181762009859085,-0.0726865902543068,0.0079646036028862
729,615,-0.09081673622131348,-0.07885972410440445,-1000.047607421875,-0.2181762009859085,-0.0726865902543068,0.0079646036028862
722,615,-0.09081673622131348,-0.07885972410440445,-1000.047607421875,-0.2181762009859085,-0.0726865902543068,0.0079646036028862
736,615,-0.09081673622131348,-0.07885972410440445,-1000.047607421875,-0.2181762009859085,-0.0726865902543068,0.0079646036028862
815,616,0.12657643854618073,-0.10537420213222504,-1000.0064086914062,0.12100021541118622,-0.0008504325523972511,0.07019983977079391
814,616,0.12657643854618073,-0.10537420213222504,-1000.0064086914062,0.12100021541118622,-0.0008504325523972511,0.07019983977079391
805,616,0.12657643854618073,-0.10537420213222504,-1000.0064086914062,0.12100021541118622,-0.0008504325523972511,0.07019983977079391
827,616,0.12657643854618073,-0.10537420213222504,-1000.0064086914062,0.12100021541118622,-0.0008504325523972511,0.07019983977079391
746,616,0.12657643854618073,-0.10537420213222504,-1000.0064086914062,0.12100021541118622,-0.0008504325523972511,0.07019983977079391
745,616,0.12657643854618073,-0.10537420213222504,-1000.0064086914062,0.12100021541118622,-0.0008504325523972511,0.07019983977079391
736,616,0.12657643854618073,-0.10537420213222504,-1000.0064086914062,0.12100021541118622,-0.0008504325523972511,0.07019983977079391
758,616,0.12657643854618073,-0.10537420213222504,-1000.0064086914062,0.12100021541118622,-0.0008504325523972511,0.07019983977079391
815,617,0.031688157469034195,0.23395425081253052,-999.9824829101562,-0.0009526006761007011,0.13050922751426697,0.05015290156006813
820,617,0.031688157469034195,0.23395425081253052,-999.9824829101562,-0.0009526006761007011,0.13050922751426697,0.05015290156006813
813,617,0.031688157469034195,0.23395425081253052,-999.9824829101562,-0.0009526006761007011,0.13050922751426697,0.05015290156006813
812,617,0.031688157469034195,0.23395425081253052,-999.9824829101562,-0.0009526006761007011,0.13050922751426697,0.05015290156006813
746,617,0.031688157469034195,0.23395425081253052,-999.9824829101562,-0.0009526006761007011,0.13050922751426697,0.05015290156006813
751,617,0.031688157469034195,0.23395425081253052,-999.9824829101562,-0.0009526006761007011,0.13050922751426697,0.05015290156006813
744,617,0.031688157469034195,0.23395425081253052,-999.9824829101562,-0.0009526006761007011,0.13050922751426697,0.05015290156006813
743,617,0.031688157469034195,0.23395425081253052,-999.9824829101562,-0.0009526006761007011,0.13050922751426697,0.05015290156006813
805,618,-0.3369637429714203,-0.20576290786266327,-1000.010986328125,0.015137619338929653,0.03371351584792137,-0.10182487219572067
814,618,-0.3369637429714203,-0.20576290786266327,-1000.010986328125,0.015137619338929653,0.03371351584792137,-0.10182487219572067
810,618,-0.3369637429714203,-0.20576290786266327,-1000.010986328125,0.015137619338929653,0.03371351584792137,-0.10182487219572067
826,618,-0.3369637429714203,-0.20576290786266327,-1000.010986328125,0.015137619338929653,0.03371351584792137,-0.10182487219572067
736,618,-0.3369637429714203,-0.20576290786266327,-1000.010986328125,0.015137619338929653,0.03371351584792137,-0.10182487219572067
745,618,-0.3369637429714203,-0.20576290786266327,-1000.010986328125,0.015137619338929653,0.03371351584792137,-0.10182487219572067
741,618,-0.3369637429714203,-0.20576290786266327,-1000.010986328125,0.015137619338929653,0.03371351584792137,-0.10182487219572067
757,618,-0.3369637429714203,-0.20576290786266327,-1000.010986328125,0.015137619338929653,0.03371351584792137,-0.10182487219572067
816,619,-0.08995632827281952,-0.2196151316165924,-999.9946899414062,-0.06888627260923386,0.0039330944418907166,0.00032210000790655613
770,619,-0.08995632827281952,-0.2196151316165924,-999.9946899414062,-0.06888627260923386,0.0039330944418907166,0.00032210000790655613
769,619,-0.08995632827281952,-0.2196151316165924,-999.9946899414062,-0.06888627260923386,0.0039330944418907166,0.00032210000790655613
786,619,-0.08995632827281952,-0.2196151316165924,-999.9946899414062,-0.06888627260923386,0.0039330944418907166,0.00032210000790655613
747,619,-0.08995632827281952,-0.2196151316165924,-999.9946899414062,-0.06888627260923386,0.0039330944418907166,0.00032210000790655613
701,619,-0.08995632827281952,-0.2196151316165924,-999.9946899414062,-0.06888627260923386,0.0039330944418907166,0.00032210000790655613
700,619,-0.08995632827281952,-0.2196151316165924,-999.9946899414062,-0.06888627260923386,0.0039330944418907166,0.00032210000790655613
717,619,-0.08995632827281952,-0.2196151316165924,-999.9946899414062,-0.06888627260923386,0.0039330944418907166,0.00032210000790655613
818,620,-0.07009174674749374,-0.16293494403362274,-1000.0048217773438,-0.09578435868024826,-0.014684421941637993,0.007887832820415497
761,620,-0.07009174674749374,-0.16293494403362274,-1000.0048217773438,-0.09578435868024826,-0.014684421941637993,0.007887832820415497
776,620,-0.07009174674749374,-0.16293494403362274,-1000.0048217773438,-0.09578435868024826,-0.014684421941637993,0.007887832820415497
796,620,-0.07009174674749374,-0.16293494403362274,-1000.0048217773438,-0.09578435868024826,-0.014684421941637993,0.007887832820415497
749,620,-0.07009174674749374,-0.16293494403362274,-1000.0048217773438,-0.09578435868024826,-0.014684421941637993,0.007887832820415497
692,620,-0.07009174674749374,-0.16293494403362274,-1000.0048217773438,-0.09578435868024826,-0.014684421941637993,0.007887832820415497
707,620,-0.07009174674749374,-0.16293494403362274,-1000.0048217773438,-0.09578435868024826,-0.014684421941637993,0.007887832820415497
727,620,-0.07009174674749374,-0.16293494403362274,-1000.0048217773438,-0.09578435868024826,-0.014684421941637993,0.007887832820415497
795,621,-0.09944853186607361,-0.11239537596702576,-1000.0626220703125,0.0866507887840271,0.05050699785351753,0.008744408376514912
819,621,-0.09944853186607361,-0.11239537596702576,-1000.0626220703125,0.0866507887840271,0.05050699785351753,0.008744408376514912
808,621,-0.09944853186607361,-0.11239537596702576,-1000.0626220703125,0.0866507887840271,0.05050699785351753,0.008744408376514912
796,621,-0.09944853186607361,-0.11239537596702576,-1000.0626220703125,0.0866507887840271,0.05050699785351753,0.008744408376514912
726,621,-0.09944853186607361,-0.11239537596702576,-1000.0626220703125,0.0866507887840271,0.05050699785351753,0.008744408376514912
750,621,-0.09944853186607361,-0.11239537596702576,-1000.0626220703125,0.0866507887840271,0.05050699785351753,0.008744408376514912
739,621,-0.09944853186607361,-0.11239537596702576,-1000.0626220703125,0.0866507887840271,0.05050699785351753,0.008744408376514912
727,621,-0.09944853186607361,-0.11239537596702576,-1000.0626220703125,0.0866507887840271,0.05050699785351753,0.008744408376514912
819,622,-0.27726855874061584,-0.18790777027606964,-1000.0482177734375,-0.13560235500335693,-0.12210280448198318,0.0919407531619072
802,622,-0.27726855874061584,-0.18790777027606964,-1000.0482177734375,-0.13560235500335693,-0.12210280448198318,0.0919407531619072
828,622,-0.27726855874061584,-0.18790777027606964,-1000.0482177734375,-0.13560235500335693,-0.12210280448198318,0.0919407531619072
813,622,-0.27726855874061584,-0.18790777027606964,-1000.0482177734375,-0.13560235500335693,-0.12210280448198318,0.0919407531619072
750,622,-0.27726855874061584,-0.18790777027606964,-1000.0482177734375,-0.13560235500335693,-0.12210280448198318,0.0919407531619072
733,622,-0.27726855874061584,-0.18790777027606964,-1000.0482177734375,-0.13560235500335693,-0.12210280448198318,0.0919407531619072
759,622,-0.27726855874061584,-0.18790777027606964,-1000.0482177734375,-0.13560235500335693,-0.12210280448198318,0.0919407531619072
744,622,-0.27726855874061584,-0.18790777027606964,-1000.0482177734375,-0.13560235500335693,-0.12210280448198318,0.0919407531619072
821,623,0.2190733104944229,0.6217339038848877,-999.8416748046875,0.04396941140294075,0.07418054342269897,0.05634472891688347
782,623,0.2190733104944229,0.6217339038848877,-999.8416748046875,0.04396941140294075,0.07418054342269897,0.05634472891688347
783,623,0.2190733104944229,0.6217339038848877,-999.8416748046875,0.04396941140294075,0.07418054342269897,0.05634472891688347
807,623,0.2190733104944229,0.6217339038848877,-999.8416748046875,0.04396941140294075,0.07418054342269897,0.05634472891688347
752,623,0.2190733104944229,0.6217339038848877,-999.8416748046875,0.04396941140294075,0.07418054342269897,0.05634472891688347
713,623,0.2190733104944229,0.6217339038848877,-999.8416748046875,0.04396941140294075,0.07418054342269897,0.05634472891688347
714,623,0.2190733104944229,0.6217339038848877,-999.8416748046875,0.04396941140294075,0.07418054342269897,0.05634472891688347
738,623,0.2190733104944229,0.6217339038848877,-999.8416748046875,0.04396941140294075,0.07418054342269897,0.05634472891688347
822,624,0.16478125751018524,0.3805842995643616,-999.8984375,0.0882980078458786,0.008918791078031063,-0.02157115936279297
800,624,0.16478125751018524,0.3805842995643616,-999.8984375,0.0882980078458786,0.008918791078031063,-0.02157115936279297
785,624,0.16478125751018524,0.3805842995643616,-999.8984375,0.0882980078458786,0.008918791078031063,-0.02157115936279297
806,624,0.16478125751018524,0.3805842995643616,-999.8984375,0.0882980078458786,0.008918791078031063,-0.02157115936279297
753,624,0.16478125751018524,0.3805842995643616,-999.8984375,0.0882980078458786,0.008918791078031063,-0.02157115936279297
731,624,0.16478125751018524,0.3805842995643616,-999.8984375,0.0882980078458786,0.008918791078031063,-0.02157115936279297
716,624,0.16478125751018524,0.3805842995643616,-999.8984375,0.0882980078458786,0.008918791078031063,-0.02157115936279297
737,624,0.16478125751018524,0.3805842995643616,-999.8984375,0.0882980078458786,0.008918791078031063,-0.02157115936279297
824,625,0.10843885689973831,-0.12619240581989288,-1000.0056762695312,-0.0069206636399030685,-0.06401563435792923,0.003949262201786041
799,625,0.10843885689973831,-0.12619240581989288,-1000.0056762695312,-0.0069206636399030685,-0.06401563435792923,0.003949262201786041
788,625,0.10843885689973831,-0.12619240581989288,-1000.0056762695312,-0.0069206636399030685,-0.06401563435792923,0.003949262201786041
803,625,0.10843885689973831,-0.12619240581989288,-1000.0056762695312,-0.0069206636399030685,-0.06401563435792923,0.003949262201786041
755,625,0.10843885689973831,-0.12619240581989288,-1000.0056762695312,-0.0069206636399030685,-0.06401563435792923,0.003949262201786041
730,625,0.10843885689973831,-0.12619240581989288,-1000.0056762695312,-0.0069206636399030685,-0.06401563435792923,0.003949262201786041
719,625,0.10843885689973831,-0.12619240581989288,-1000.0056762695312,-0.0069206636399030685,-0.06401563435792923,0.003949262201786041
734,625,0.10843885689973831,-0.12619240581989288,-1000.0056762695312,-0.0069206636399030685,-0.06401563435792923,0.003949262201786041
825,626,0.19367575645446777,-0.12024670094251633,-1000.0453491210938,-0.074972003698349,-0.09955313056707382,0.002233767881989479
789,626,0.19367575645446777,-0.12024670094251633,-1000.0453491210938,-0.074972003698349,-0.09955313056707382,0.002233767881989479
790,626,0.19367575645446777,-0.12024670094251633,-1000.0453491210938,-0.074972003698349,-0.09955313056707382,0.002233767881989479
810,626,0.19367575645446777,-0.12024670094251633,-1000.0453491210938,-0.074972003698349,-0.09955313056707382,0.002233767881989479
756,626,0.19367575645446777,-0.12024670094251633,-1000.0453491210938,-0.074972003698349,-0.09955313056707382,0.002233767881989479
720,626,0.19367575645446777,-0.12024670094251633,-1000.0453491210938,-0.074972003698349,-0.09955313056707382,0.002233767881989479
721,626,0.19367575645446777,-0.12024670094251633,-1000.0453491210938,-0.074972003698349,-0.09955313056707382,0.002233767881989479
741,626,0.19367575645446777,-0.12024670094251633,-1000.0453491210938,-0.074972003698349,-0.09955313056707382,0.002233767881989479
827,627,-0.19469015300273895,-0.018256478011608124,-1000.0352783203125,-0.086305171251297,-0.02613453008234501,0.0272749662399292
792,627,-0.19469015300273895,-0.018256478011608124,-1000.0352783203125,-0.086305171251297,-0.02613453008234501,0.0272749662399292
797,627,-0.19469015300273895,-0.018256478011608124,-1000.0352783203125,-0.086305171251297,-0.02613453008234501,0.0272749662399292
809,627,-0.19469015300273895,-0.018256478011608124,-1000.0352783203125,-0.086305171251297,-0.02613453008234501,0.0272749662399292
758,627,-0.19469015300273895,-0.018256478011608124,-1000.0352783203125,-0.086305171251297,-0.02613453008234501,0.0272749662399292
723,627,-0.19469015300273895,-0.018256478011608124,-1000.0352783203125,-0.086305171251297,-0.02613453008234501,0.0272749662399292
728,627,-0.19469015300273895,-0.018256478011608124,-1000.0352783203125,-0.086305171251297,-0.02613453008234501,0.0272749662399292
740,627,-0.19469015300273895,-0.018256478011608124,-1000.0352783203125,-0.086305171251297,-0.02613453008234501,0.0272749662399292
852,628,0.05913487449288368,0.3146207630634308,-999.9969482421875,0.016877274960279465,0.009454683400690556,0.002792906016111374
841,628,0.05913487449288368,0.3146207630634308,-999.9969482421875,0.016877274960279465,0.009454683400690556,0.002792906016111374
840,628,0.05913487449288368,0.3146207630634308,-999.9969482421875,0.016877274960279465,0.009454683400690556,0.002792906016111374
869,628,0.05913487449288368,0.3146207630634308,-999.9969482421875,0.016877274960279465,0.009454683400690556,0.002792906016111374
783,628,0.05913487449288368,0.3146207630634308,-999.9969482421875,0.016877274960279465,0.009454683400690556,0.002792906016111374
772,628,0.05913487449288368,0.3146207630634308,-999.9969482421875,0.016877274960279465,0.009454683400690556,0.002792906016111374
771,628,0.05913487449288368,0.3146207630634308,-999.9969482421875,0.016877274960279465,0.009454683400690556,0.002792906016111374
800,628,0.05913487449288368,0.3146207630634308,-999.9969482421875,0.016877274960279465,0.009454683400690556,0.002792906016111374
869,629,0.09913551807403564,0.32881593704223633,-1000.0054931640625,-0.03408562391996384,-0.0006952473195269704,-0.02831532619893551
840,629,0.09913551807403564,0.32881593704223633,-1000.0054931640625,-0.03408562391996384,-0.0006952473195269704,-0.02831532619893551
849,629,0.09913551807403564,0.32881593704223633,-1000.0054931640625,-0.03408562391996384,-0.0006952473195269704,-0.02831532619893551
854,629,0.09913551807403564,0.32881593704223633,-1000.0054931640625,-0.03408562391996384,-0.0006952473195269704,-0.02831532619893551
800,629,0.09913551807403564,0.32881593704223633,-1000.0054931640625,-0.03408562391996384,-0.0006952473195269704,-0.02831532619893551
771,629,0.09913551807403564,0.32881593704223633,-1000.0054931640625,-0.03408562391996384,-0.0006952473195269704,-0.02831532619893551
780,629,0.09913551807403564,0.32881593704223633,-1000.0054931640625,-0.03408562391996384,-0.0006952473195269704,-0.02831532619893551
785,629,0.09913551807403564,0.32881593704223633,-1000.0054931640625,-0.03408562391996384,-0.0006952473195269704,-0.02831532619893551
850,630,0.04555308818817139,0.01804818958044052,-999.9978637695312,-0.03424103930592537,0.013261527754366398,-0.006129363551735878
870,630,0.04555308818817139,0.01804818958044052,-999.9978637695312,-0.03424103930592537,0.013261527754366398,-0.006129363551735878
853,630,0.04555308818817139,0.01804818958044052,-999.9978637695312,-0.03424103930592537,0.013261527754366398,-0.006129363551735878
843,630,0.04555308818817139,0.01804818958044052,-999.9978637695312,-0.03424103930592537,0.013261527754366398,-0.006129363551735878
781,630,0.04555308818817139,0.01804818958044052,-999.9978637695312,-0.03424103930592537,0.013261527754366398,-0.006129363551735878
801,630,0.04555308818817139,0.01804818958044052,-999.9978637695312,-0.03424103930592537,0.013261527754366398,-0.006129363551735878
784,630,0.04555308818817139,0.01804818958044052,-999.9978637695312,-0.03424103930592537,0.013261527754366398,-0.006129363551735878
774,630,0.04555308818817139,0.01804818958044052,-999.9978637695312,-0.03424103930592537,0.013261527754366398,-0.006129363551735878
841,631,0.10896388441324234,0.33047837018966675,-999.9917602539062,-0.07682200521230698,0.015571449883282185,-0.016997111961245537
852,631,0.10896388441324234,0.33047837018966675,-999.9917602539062,-0.07682200521230698,0.015571449883282185,-0.016997111961245537
851,631,0.10896388441324234,0.33047837018966675,-999.9917602539062,-0.07682200521230698,0.015571449883282185,-0.016997111961245537
842,631,0.10896388441324234,0.33047837018966675,-999.9917602539062,-0.07682200521230698,0.015571449883282185,-0.016997111961245537
772,631,0.10896388441324234,0.33047837018966675,-999.9917602539062,-0.07682200521230698,0.015571449883282185,-0.016997111961245537
783,631,0.10896388441324234,0.33047837018966675,-999.9917602539062,-0.07682200521230698,0.015571449883282185,-0.016997111961245537
782,631,0.10896388441324234,0.33047837018966675,-999.9917602539062,-0.07682200521230698,0.015571449883282185,-0.016997111961245537
773,631,0.10896388441324234,0.33047837018966675,-999.9917602539062,-0.07682200521230698,0.015571449883282185,-0.016997111961245537
880,632,0.08639303594827652,0.053357359021902084,-999.9952392578125,0.05715952813625336,-0.010890920646488667,-0.05978589877486229
893,632,0.08639303594827652,0.053357359021902084,-999.9952392578125,0.05715952813625336,-0.010890920646488667,-0.05978589877486229
872,632,0.08639303594827652,0.053357359021902084,-999.9952392578125,0.05715952813625336,-0.010890920646488667,-0.05978589877486229
883,632,0.08639303594827652,0.053357359021902084,-999.9952392578125,0.05715952813625336,-0.010890920646488667,-0.05978589877486229
811,632,0.08639303594827652,0.053357359021902084,-999.9952392578125,0.05715952813625336,-0.010890920646488667,-0.05978589877486229
824,632,0.08639303594827652,0.053357359021902084,-999.9952392578125,0.05715952813625336,-0.010890920646488667,-0.05978589877486229
803,632,0.08639303594827652,0.053357359021902084,-999.9952392578125,0.05715952813625336,-0.010890920646488667,-0.05978589877486229
814,632,0.08639303594827652,0.053357359021902084,-999.9952392578125,0.05715952813625336,-0.010890920646488667,-0.05978589877486229
896,633,-0.37578168511390686,-0.4307774305343628,-1000.0532836914062,-0.013823640532791615,-0.009318573400378227,0.021375929936766624
874,633,-0.37578168511390686,-0.4307774305343628,-1000.0532836914062,-0.013823640532791615,-0.009318573400378227,0.021375929936766624
860,633,-0.37578168511390686,-0.4307774305343628,-1000.0532836914062,-0.013823640532791615,-0.009318573400378227,0.021375929936766624
861,633,-0.37578168511390686,-0.4307774305343628,-1000.0532836914062,-0.013823640532791615,-0.009318573400378227,0.021375929936766624
827,633,-0.37578168511390686,-0.4307774305343628,-1000.0532836914062,-0.013823640532791615,-0.009318573400378227,0.021375929936766624
805,633,-0.37578168511390686,-0.4307774305343628,-1000.0532836914062,-0.013823640532791615,-0.009318573400378227,0.021375929936766624
791,633,-0.37578168511390686,-0.4307774305343628,-1000.0532836914062,-0.013823640532791615,-0.009318573400378227,0.021375929936766624
792,633,-0.37578168511390686,-0.4307774305343628,-1000.0532836914062,-0.013823640532791615,-0.009318573400378227,0.021375929936766624
884,634,-0.15618257224559784,-0.23627719283103943,-1000.0234375,0.05879082530736923,0.0615847148001194,0.055928703397512436
881,634,-0.15618257224559784,-0.23627719283103943,-1000.0234375,0.05879082530736923,0.0615847148001194,0.055928703397512436
880,634,-0.15618257224559784,-0.23627719283103943,-1000.0234375,0.05879082530736923,0.0615847148001194,0.055928703397512436
883,634,-0.15618257224559784,-0.23627719283103943,-1000.0234375,0.05879082530736923,0.0615847148001194,0.055928703397512436
815,634,-0.15618257224559784,-0.23627719283103943,-1000.0234375,0.05879082530736923,0.0615847148001194,0.055928703397512436
812,634,-0.15618257224559784,-0.23627719283103943,-1000.0234375,0.05879082530736923,0.0615847148001194,0.055928703397512436
811,634,-0.15618257224559784,-0.23627719283103943,-1000.0234375,0.05879082530736923,0.0615847148001194,0.055928703397512436
814,634,-0.15618257224559784,-0.23627719283103943,-1000.0234375,0.05879082530736923,0.0615847148001194,0.055928703397512436
875,635,0.25778287649154663,0.44956091046333313,-999.9572143554688,0.052264504134655,-0.06611362844705582,-0.042823728173971176
892,635,0.25778287649154663,0.44956091046333313,-999.9572143554688,0.052264504134655,-0.06611362844705582,-0.042823728173971176
880,635,0.25778287649154663,0.44956091046333313,-999.9572143554688,0.052264504134655,-0.06611362844705582,-0.042823728173971176
881,635,0.25778287649154663,0.44956091046333313,-999.9572143554688,0.052264504134655,-0.06611362844705582,-0.042823728173971176
806,635,0.25778287649154663,0.44956091046333313,-999.9572143554688,0.052264504134655,-0.06611362844705582,-0.042823728173971176
823,635,0.25778287649154663,0.44956091046333313,-999.9572143554688,0.052264504134655,-0.06611362844705582,-0.042823728173971176
811,635,0.25778287649154663,0.44956091046333313,-999.9572143554688,0.052264504134655,-0.06611362844705582,-0.042823728173971176
812,635,0.25778287649154663,0.44956091046333313,-999.9572143554688,0.052264504134655,-0.06611362844705582,-0.042823728173971176
855,636,-0.09686128795146942,-0.1359676867723465,-999.973388671875,-0.04837934672832489,-0.046016234904527664,0.05609477683901787
868,636,-0.09686128795146942,-0.1359676867723465,-999.973388671875,-0.04837934672832489,-0.046016234904527664,0.05609477683901787
893,636,-0.09686128795146942,-0.1359676867723465,-999.973388671875,-0.04837934672832489,-0.046016234904527664,0.05609477683901787
880,636,-0.09686128795146942,-0.1359676867723465,-999.973388671875,-0.04837934672832489,-0.046016234904527664,0.05609477683901787
786,636,-0.09686128795146942,-0.1359676867723465,-999.973388671875,-0.04837934672832489,-0.046016234904527664,0.05609477683901787
799,636,-0.09686128795146942,-0.1359676867723465,-999.973388671875,-0.04837934672832489,-0.046016234904527664,0.05609477683901787
824,636,-0.09686128795146942,-0.1359676867723465,-999.973388671875,-0.04837934672832489,-0.046016234904527664,0.05609477683901787
811,636,-0.09686128795146942,-0.1359676867723465,-999.973388671875,-0.04837934672832489,-0.046016234904527664,0.05609477683901787
895,637,-0.5446233749389648,-0.2816163897514343,-1000.06494140625,-0.13275527954101562,-0.05815691873431206,-0.06411851942539215
879,637,-0.5446233749389648,-0.2816163897514343,-1000.06494140625,-0.13275527954101562,-0.05815691873431206,-0.06411851942539215
859,637,-0.5446233749389648,-0.2816163897514343,-1000.06494140625,-0.13275527954101562,-0.05815691873431206,-0.06411851942539215
867,637,-0.5446233749389648,-0.2816163897514343,-1000.06494140625,-0.13275527954101562,-0.05815691873431206,-0.06411851942539215
826,637,-0.5446233749389648,-0.2816163897514343,-1000.06494140625,-0.13275527954101562,-0.05815691873431206,-0.06411851942539215
810,637,-0.5446233749389648,-0.2816163897514343,-1000.06494140625,-0.13275527954101562,-0.05815691873431206,-0.06411851942539215
790,637,-0.5446233749389648,-0.2816163897514343,-1000.06494140625,-0.13275527954101562,-0.05815691873431206,-0.06411851942539215
798,637,-0.5446233749389648,-0.2816163897514343,-1000.06494140625,-0.13275527954101562,-0.05815691873431206,-0.06411851942539215
889,638,0.1494569033384323,0.25774750113487244,-999.93115234375,0.06674431264400482,0.15941940248012543,-0.0822048932313919
884,638,0.1494569033384323,0.25774750113487244,-999.93115234375,0.06674431264400482,0.15941940248012543,-0.0822048932313919
863,638,0.1494569033384323,0.25774750113487244,-999.93115234375,0.06674431264400482,0.15941940248012543,-0.0822048932313919
877,638,0.1494569033384323,0.25774750113487244,-999.93115234375,0.06674431264400482,0.15941940248012543,-0.0822048932313919
820,638,0.1494569033384323,0.25774750113487244,-999.93115234375,0.06674431264400482,0.15941940248012543,-0.0822048932313919
815,638,0.1494569033384323,0.25774750113487244,-999.93115234375,0.06674431264400482,0.15941940248012543,-0.0822048932313919
794,638,0.1494569033384323,0.25774750113487244,-999.93115234375,0.06674431264400482,0.15941940248012543,-0.0822048932313919
808,638,0.1494569033384323,0.25774750113487244,-999.93115234375,0.06674431264400482,0.15941940248012543,-0.0822048932313919
863,639,-0.2790307104587555,-0.1613355278968811,-999.996337890625,-0.17698822915554047,0.00125130545347929,-0.032482851296663284
878,639,-0.2790307104587555,-0.1613355278968811,-999.996337890625,-0.17698822915554047,0.00125130545347929,-0.032482851296663284
886,639,-0.2790307104587555,-0.1613355278968811,-999.996337890625,-0.17698822915554047,0.00125130545347929,-0.032482851296663284
887,639,-0.2790307104587555,-0.1613355278968811,-999.996337890625,-0.17698822915554047,0.00125130545347929,-0.032482851296663284
794,639,-0.2790307104587555,-0.1613355278968811,-999.996337890625,-0.17698822915554047,0.00125130545347929,-0.032482851296663284
809,639,-0.2790307104587555,-0.1613355278968811,-999.996337890625,-0.17698822915554047,0.00125130545347929,-0.032482851296663284
817,639,-0.2790307104587555,-0.1613355278968811,-999.996337890625,-0.17698822915554047,0.00125130545347929,-0.032482851296663284
818,639,-0.2790307104587555,-0.1613355278968811,-999.996337890625,-0.17698822915554047,0.00125130545347929,-0.032482851296663284
870,640,-0.0052887131460011005,0.07083385437726974,-999.8494262695312,0.24179309606552124,-0.00716400844976306,0.08545351773500443
851,640,-0.0052887131460011005,0.07083385437726974,-999.8494262695312,0.24179309606552124,-0.00716400844976306,0.08545351773500443
890,640,-0.0052887131460011005,0.07083385437726974,-999.8494262695312,0.24179309606552124,-0.00716400844976306,0.08545351773500443
873,640,-0.0052887131460011005,0.07083385437726974,-999.8494262695312,0.24179309606552124,-0.00716400844976306,0.08545351773500443
801,640,-0.0052887131460011005,0.07083385437726974,-999.8494262695312,0.24179309606552124,-0.00716400844976306,0.08545351773500443
782,640,-0.0052887131460011005,0.07083385437726974,-999.8494262695312,0.24179309606552124,-0.00716400844976306,0.08545351773500443
821,640,-0.0052887131460011005,0.07083385437726974,-999.8494262695312,0.24179309606552124,-0.00716400844976306,0.08545351773500443
804,640,-0.0052887131460011005,0.07083385437726974,-999.8494262695312,0.24179309606552124,-0.00716400844976306,0.08545351773500443
897,641,-0.2139345109462738,-0.4127042293548584,-1000.1279296875,0.02233845368027687,-0.029262324795126915,-0.08339409530162811
853,641,-0.2139345109462738,-0.4127042293548584,-1000.1279296875,0.02233845368027687,-0.029262324795126915,-0.08339409530162811
870,641,-0.2139345109462738,-0.4127042293548584,-1000.1279296875,0.02233845368027687,-0.029262324795126915,-0.08339409530162811
873,641,-0.2139345109462738,-0.4127042293548584,-1000.1279296875,0.02233845368027687,-0.029262324795126915,-0.08339409530162811
828,641,-0.2139345109462738,-0.4127042293548584,-1000.1279296875,0.02233845368027687,-0.029262324795126915,-0.08339409530162811
784,641,-0.2139345109462738,-0.4127042293548584,-1000.1279296875,0.02233845368027687,-0.029262324795126915,-0.08339409530162811
801,641,-0.2139345109462738,-0.4127042293548584,-1000.1279296875,0.02233845368027687,-0.029262324795126915,-0.08339409530162811
804,641,-0.2139345109462738,-0.4127042293548584,-1000.1279296875,0.02233845368027687,-0.029262324795126915,-0.08339409530162811
857,642,-0.2624908983707428,-0.2025017887353897,-1000.03759765625,-0.032531771808862686,-0.06714018434286118,0.04280291497707367
858,642,-0.2624908983707428,-0.2025017887353897,-1000.03759765625,-0.032531771808862686,-0.06714018434286118,0.04280291497707367
894,642,-0.2624908983707428,-0.2025017887353897,-1000.03759765625,-0.032531771808862686,-0.06714018434286118,0.04280291497707367
872,642,-0.2624908983707428,-0.2025017887353897,-1000.03759765625,-0.032531771808862686,-0.06714018434286118,0.04280291497707367
788,642,-0.2624908983707428,-0.2025017887353897,-1000.03759765625,-0.032531771808862686,-0.06714018434286118,0.04280291497707367
789,642,-0.2624908983707428,-0.2025017887353897,-1000.03759765625,-0.032531771808862686,-0.06714018434286118,0.04280291497707367
825,642,-0.2624908983707428,-0.2025017887353897,-1000.03759765625,-0.032531771808862686,-0.06714018434286118,0.04280291497707367
803,642,-0.2624908983707428,-0.2025017887353897,-1000.03759765625,-0.032531771808862686,-0.06714018434286118,0.04280291497707367
842,643,0.13774539530277252,0.3063146471977234,-999.9990234375,-0.13059024512767792,0.0025453674606978893,0.0127719696611166
851,643,0.13774539530277252,0.3063146471977234,-999.9990234375,-0.13059024512767792,0.0025453674606978893,0.0127719696611166
870,643,0.13774539530277252,0.3063146471977234,-999.9990234375,-0.13059024512767792,0.0025453674606978893,0.0127719696611166
850,643,0.13774539530277252,0.3063146471977234,-999.9990234375,-0.13059024512767792,0.0025453674606978893,0.0127719696611166
773,643,0.13774539530277252,0.3063146471977234,-999.9990234375,-0.13059024512767792,0.0025453674606978893,0.0127719696611166
782,643,0.13774539530277252,0.3063146471977234,-999.9990234375,-0.13059024512767792,0.0025453674606978893,0.0127719696611166
801,643,0.13774539530277252,0.3063146471977234,-999.9990234375,-0.13059024512767792,0.0025453674606978893,0.0127719696611166
781,643,0.13774539530277252,0.3063146471977234,-999.9990234375,-0.13059024512767792,0.0025453674606978893,0.0127719696611166
839,644,0.13361503183841705,0.4314531683921814,-999.985107421875,0.047778625041246414,-0.007619170006364584,-0.004561940208077431
885,644,0.13361503183841705,0.4314531683921814,-999.985107421875,0.047778625041246414,-0.007619170006364584,-0.004561940208077431
854,644,0.13361503183841705,0.4314531683921814,-999.985107421875,0.047778625041246414,-0.007619170006364584,-0.004561940208077431
849,644,0.13361503183841705,0.4314531683921814,-999.985107421875,0.047778625041246414,-0.007619170006364584,-0.004561940208077431
770,644,0.13361503183841705,0.4314531683921814,-999.985107421875,0.047778625041246414,-0.007619170006364584,-0.004561940208077431
816,644,0.13361503183841705,0.4314531683921814,-999.985107421875,0.047778625041246414,-0.007619170006364584,-0.004561940208077431
785,644,0.13361503183841705,0.4314531683921814,-999.985107421875,0.047778625041246414,-0.007619170006364584,-0.004561940208077431
780,644,0.13361503183841705,0.4314531683921814,-999.985107421875,0.047778625041246414,-0.007619170006364584,-0.004561940208077431
855,645,0.14166586101055145,0.013512966223061085,-999.9922485351562,0.044352054595947266,0.005015176720917225,-0.011004185304045677
838,645,0.14166586101055145,0.013512966223061085,-999.9922485351562,0.044352054595947266,0.005015176720917225,-0.011004185304045677
848,645,0.14166586101055145,0.013512966223061085,-999.9922485351562,0.044352054595947266,0.005015176720917225,-0.011004185304045677
868,645,0.14166586101055145,0.013512966223061085,-999.9922485351562,0.044352054595947266,0.005015176720917225,-0.011004185304045677
786,645,0.14166586101055145,0.013512966223061085,-999.9922485351562,0.044352054595947266,0.005015176720917225,-0.011004185304045677
769,645,0.14166586101055145,0.013512966223061085,-999.9922485351562,0.044352054595947266,0.005015176720917225,-0.011004185304045677
779,645,0.14166586101055145,0.013512966223061085,-999.9922485351562,0.044352054595947266,0.005015176720917225,-0.011004185304045677
799,645,0.14166586101055145,0.013512966223061085,-999.9922485351562,0.044352054595947266,0.005015176720917225,-0.011004185304045677
856,646,0.09530587494373322,0.03567369282245636,-1000.0087280273438,0.008495805785059929,0.008171895518898964,0.002289592521265149
844,646,0.09530587494373322,0.03567369282245636,-1000.0087280273438,0.008495805785059929,0.008171895518898964,0.002289592521265149
843,646,0.09530587494373322,0.03567369282245636,-1000.0087280273438,0.008495805785059929,0.008171895518898964,0.002289592521265149
853,646,0.09530587494373322,0.03567369282245636,-1000.0087280273438,0.008495805785059929,0.008171895518898964,0.002289592521265149
787,646,0.09530587494373322,0.03567369282245636,-1000.0087280273438,0.008495805785059929,0.008171895518898964,0.002289592521265149
775,646,0.09530587494373322,0.03567369282245636,-1000.0087280273438,0.008495805785059929,0.008171895518898964,0.002289592521265149
774,646,0.09530587494373322,0.03567369282245636,-1000.0087280273438,0.008495805785059929,0.008171895518898964,0.002289592521265149
784,646,0.09530587494373322,0.03567369282245636,-1000.0087280273438,0.008495805785059929,0.008171895518898964,0.002289592521265149
868,647,0.07351575791835785,-0.002813458675518632,-1000.0130615234375,-0.013676848262548447,-0.008702170103788376,0.007178763393312693
848,647,0.07351575791835785,-0.002813458675518632,-1000.0130615234375,-0.013676848262548447,-0.008702170103788376,0.007178763393312693
837,647,0.07351575791835785,-0.002813458675518632,-1000.0130615234375,-0.013676848262548447,-0.008702170103788376,0.007178763393312693
857,647,0.07351575791835785,-0.002813458675518632,-1000.0130615234375,-0.013676848262548447,-0.008702170103788376,0.007178763393312693
799,647,0.07351575791835785,-0.002813458675518632,-1000.0130615234375,-0.013676848262548447,-0.008702170103788376,0.007178763393312693
779,647,0.07351575791835785,-0.002813458675518632,-1000.0130615234375,-0.013676848262548447,-0.008702170103788376,0.007178763393312693
768,647,0.07351575791835785,-0.002813458675518632,-1000.0130615234375,-0.013676848262548447,-0.008702170103788376,0.007178763393312693
788,647,0.07351575791835785,-0.002813458675518632,-1000.0130615234375,-0.013676848262548447,-0.008702170103788376,0.007178763393312693
892,648,-0.1566437929868698,-0.15073688328266144,-1000.055419921875,-0.16451023519039154,0.024387894198298454,-0.022410638630390167
885,648,-0.1566437929868698,-0.15073688328266144,-1000.055419921875,-0.16451023519039154,0.024387894198298454,-0.022410638630390167
855,648,-0.1566437929868698,-0.15073688328266144,-1000.055419921875,-0.16451023519039154,0.024387894198298454,-0.022410638630390167
880,648,-0.1566437929868698,-0.15073688328266144,-1000.055419921875,-0.16451023519039154,0.024387894198298454,-0.022410638630390167
823,648,-0.1566437929868698,-0.15073688328266144,-1000.055419921875,-0.16451023519039154,0.024387894198298454,-0.022410638630390167
816,648,-0.1566437929868698,-0.15073688328266144,-1000.055419921875,-0.16451023519039154,0.024387894198298454,-0.022410638630390167
786,648,-0.1566437929868698,-0.15073688328266144,-1000.055419921875,-0.16451023519039154,0.024387894198298454,-0.022410638630390167
811,648,-0.1566437929868698,-0.15073688328266144,-1000.055419921875,-0.16451023519039154,0.024387894198298454,-0.022410638630390167
857,649,0.14007022976875305,-0.0010525842662900686,-999.9852294921875,-0.041122015565633774,0.0006503949989564717,-0.01798744685947895
837,649,0.14007022976875305,-0.0010525842662900686,-999.9852294921875,-0.041122015565633774,0.0006503949989564717,-0.01798744685947895
836,649,0.14007022976875305,-0.0010525842662900686,-999.9852294921875,-0.041122015565633774,0.0006503949989564717,-0.01798744685947895
858,649,0.14007022976875305,-0.0010525842662900686,-999.9852294921875,-0.041122015565633774,0.0006503949989564717,-0.01798744685947895
788,649,0.14007022976875305,-0.0010525842662900686,-999.9852294921875,-0.041122015565633774,0.0006503949989564717,-0.01798744685947895
768,649,0.14007022976875305,-0.0010525842662900686,-999.9852294921875,-0.041122015565633774,0.0006503949989564717,-0.01798744685947895
767,649,0.14007022976875305,-0.0010525842662900686,-999.9852294921875,-0.041122015565633774,0.0006503949989564717,-0.01798744685947895
789,649,0.14007022976875305,-0.0010525842662900686,-999.9852294921875,-0.041122015565633774,0.0006503949989564717,-0.01798744685947895
858,650,0.23983390629291534,0.08331391215324402,-1000.0159301757812,0.02964300476014614,-0.007987245917320251,0.014848217368125916
836,650,0.23983390629291534,0.08331391215324402,-1000.0159301757812,0.02964300476014614,-0.007987245917320251,0.014848217368125916
835,650,0.23983390629291534,0.08331391215324402,-1000.0159301757812,0.02964300476014614,-0.007987245917320251,0.014848217368125916
859,650,0.23983390629291534,0.08331391215324402,-1000.0159301757812,0.02964300476014614,-0.007987245917320251,0.014848217368125916
789,650,0.23983390629291534,0.08331391215324402,-1000.0159301757812,0.02964300476014614,-0.007987245917320251,0.014848217368125916
767,650,0.23983390629291534,0.08331391215324402,-1000.0159301757812,0.02964300476014614,-0.007987245917320251,0.014848217368125916
766,650,0.23983390629291534,0.08331391215324402,-1000.0159301757812,0.02964300476014614,-0.007987245917320251,0.014848217368125916
790,650,0.23983390629291534,0.08331391215324402,-1000.0159301757812,0.02964300476014614,-0.007987245917320251,0.014848217368125916
889,651,-0.08067440986633301,0.21352611482143402,-1000.0484008789062,0.04813291132450104,-0.010134869255125523,0.1173880323767662
877,651,-0.08067440986633301,0.21352611482143402,-1000.0484008789062,0.04813291132450104,-0.010134869255125523,0.1173880323767662
888,651,-0.08067440986633301,0.21352611482143402,-1000.0484008789062,0.04813291132450104,-0.010134869255125523,0.1173880323767662
882,651,-0.08067440986633301,0.21352611482143402,-1000.0484008789062,0.04813291132450104,-0.010134869255125523,0.1173880323767662
820,651,-0.08067440986633301,0.21352611482143402,-1000.0484008789062,0.04813291132450104,-0.010134869255125523,0.1173880323767662
808,651,-0.08067440986633301,0.21352611482143402,-1000.0484008789062,0.04813291132450104,-0.010134869255125523,0.1173880323767662
819,651,-0.08067440986633301,0.21352611482143402,-1000.0484008789062,0.04813291132450104,-0.010134869255125523,0.1173880323767662
813,651,-0.08067440986633301,0.21352611482143402,-1000.0484008789062,0.04813291132450104,-0.010134869255125523,0.1173880323767662
844,652,0.11316608637571335,0.041104063391685486,-999.9931030273438,0.09131056815385818,0.006586380302906036,-0.015505850315093994
856,652,0.11316608637571335,0.041104063391685486,-999.9931030273438,0.09131056815385818,0.006586380302906036,-0.015505850315093994
864,652,0.11316608637571335,0.041104063391685486,-999.9931030273438,0.09131056815385818,0.006586380302906036,-0.015505850315093994
829,652,0.11316608637571335,0.041104063391685486,-999.9931030273438,0.09131056815385818,0.006586380302906036,-0.015505850315093994
775,652,0.11316608637571335,0.041104063391685486,-999.9931030273438,0.09131056815385818,0.006586380302906036,-0.015505850315093994
787,652,0.11316608637571335,0.041104063391685486,-999.9931030273438,0.09131056815385818,0.006586380302906036,-0.015505850315093994
795,652,0.11316608637571335,0.041104063391685486,-999.9931030273438,0.09131056815385818,0.006586380302906036,-0.015505850315093994
760,652,0.11316608637571335,0.041104063391685486,-999.9931030273438,0.09131056815385818,0.006586380302906036,-0.015505850315093994
859,653,0.16850361227989197,-0.019461579620838165,-999.98388671875,-0.0025822585448622704,-0.0004615327052306384,0.002334444783627987
835,653,0.16850361227989197,-0.019461579620838165,-999.98388671875,-0.0025822585448622704,-0.0004615327052306384,0.002334444783627987
847,653,0.16850361227989197,-0.019461579620838165,-999.98388671875,-0.0025822585448622704,-0.0004615327052306384,0.002334444783627987
867,653,0.16850361227989197,-0.019461579620838165,-999.98388671875,-0.0025822585448622704,-0.0004615327052306384,0.002334444783627987
790,653,0.16850361227989197,-0.019461579620838165,-999.98388671875,-0.0025822585448622704,-0.0004615327052306384,0.002334444783627987
766,653,0.16850361227989197,-0.019461579620838165,-999.98388671875,-0.0025822585448622704,-0.0004615327052306384,0.002334444783627987
778,653,0.16850361227989197,-0.019461579620838165,-999.98388671875,-0.0025822585448622704,-0.0004615327052306384,0.002334444783627987
798,653,0.16850361227989197,-0.019461579620838165,-999.98388671875,-0.0025822585448622704,-0.0004615327052306384,0.002334444783627987
867,654,0.20592351257801056,0.11000172048807144,-1000.0164794921875,-0.07511158287525177,-0.009551050141453743,0.010048804804682732
847,654,0.20592351257801056,0.11000172048807144,-1000.0164794921875,-0.07511158287525177,-0.009551050141453743,0.010048804804682732
834,654,0.20592351257801056,0.11000172048807144,-1000.0164794921875,-0.07511158287525177,-0.009551050141453743,0.010048804804682732
860,654,0.20592351257801056,0.11000172048807144,-1000.0164794921875,-0.07511158287525177,-0.009551050141453743,0.010048804804682732
798,654,0.20592351257801056,0.11000172048807144,-1000.0164794921875,-0.07511158287525177,-0.009551050141453743,0.010048804804682732
778,654,0.20592351257801056,0.11000172048807144,-1000.0164794921875,-0.07511158287525177,-0.009551050141453743,0.010048804804682732
765,654,0.20592351257801056,0.11000172048807144,-1000.0164794921875,-0.07511158287525177,-0.009551050141453743,0.010048804804682732
791,654,0.20592351257801056,0.11000172048807144,-1000.0164794921875,-0.07511158287525177,-0.009551050141453743,0.010048804804682732
860,655,0.11515043675899506,0.21458075940608978,-999.9813232421875,-0.0842873752117157,0.0024438363034278154,-0.013486349955201149
834,655,0.11515043675899506,0.21458075940608978,-999.9813232421875,-0.0842873752117157,0.0024438363034278154,-0.013486349955201149
833,655,0.11515043675899506,0.21458075940608978,-999.9813232421875,-0.0842873752117157,0.0024438363034278154,-0.013486349955201149
861,655,0.11515043675899506,0.21458075940608978,-999.9813232421875,-0.0842873752117157,0.0024438363034278154,-0.013486349955201149
791,655,0.11515043675899506,0.21458075940608978,-999.9813232421875,-0.0842873752117157,0.0024438363034278154,-0.013486349955201149
765,655,0.11515043675899506,0.21458075940608978,-999.9813232421875,-0.0842873752117157,0.0024438363034278154,-0.013486349955201149
764,655,0.11515043675899506,0.21458075940608978,-999.9813232421875,-0.0842873752117157,0.0024438363034278154,-0.013486349955201149
792,655,0.11515043675899506,0.21458075940608978,-999.9813232421875,-0.0842873752117157,0.0024438363034278154,-0.013486349955201149
861,656,0.018834613263607025,0.13557930290699005,-1000.0162963867188,0.0015085410559549928,-0.015076342970132828,0.01703358069062233
833,656,0.018834613263607025,0.13557930290699005,-1000.0162963867188,0.0015085410559549928,-0.015076342970132828,0.01703358069062233
846,656,0.018834613263607025,0.13557930290699005,-1000.0162963867188,0.0015085410559549928,-0.015076342970132828,0.01703358069062233
866,656,0.018834613263607025,0.13557930290699005,-1000.0162963867188,0.0015085410559549928,-0.015076342970132828,0.01703358069062233
792,656,0.018834613263607025,0.13557930290699005,-1000.0162963867188,0.0015085410559549928,-0.015076342970132828,0.01703358069062233
764,656,0.018834613263607025,0.13557930290699005,-1000.0162963867188,0.0015085410559549928,-0.015076342970132828,0.01703358069062233
777,656,0.018834613263607025,0.13557930290699005,-1000.0162963867188,0.0015085410559549928,-0.015076342970132828,0.01703358069062233
797,656,0.018834613263607025,0.13557930290699005,-1000.0162963867188,0.0015085410559549928,-0.015076342970132828,0.01703358069062233
866,657,0.03304990381002426,0.11421988159418106,-999.990478515625,0.030548397451639175,0.016858534887433052,0.00407962454482913
846,657,0.03304990381002426,0.11421988159418106,-999.990478515625,0.030548397451639175,0.016858534887433052,0.00407962454482913
832,657,0.03304990381002426,0.11421988159418106,-999.990478515625,0.030548397451639175,0.016858534887433052,0.00407962454482913
862,657,0.03304990381002426,0.11421988159418106,-999.990478515625,0.030548397451639175,0.016858534887433052,0.00407962454482913
797,657,0.03304990381002426,0.11421988159418106,-999.990478515625,0.030548397451639175,0.016858534887433052,0.00407962454482913
777,657,0.03304990381002426,0.11421988159418106,-999.990478515625,0.030548397451639175,0.016858534887433052,0.00407962454482913
763,657,0.03304990381002426,0.11421988159418106,-999.990478515625,0.030548397451639175,0.016858534887433052,0.00407962454482913
793,657,0.03304990381002426,0.11421988159418106,-999.990478515625,0.030548397451639175,0.016858534887433052,0.00407962454482913
886,658,0.3303195834159851,0.343754380941391,-999.9913330078125,0.14043362438678741,0.004673444200307131,0.021850263699889183
831,658,0.3303195834159851,0.343754380941391,-999.9913330078125,0.14043362438678741,0.004673444200307131,0.021850263699889183
830,658,0.3303195834159851,0.343754380941391,-999.9913330078125,0.14043362438678741,0.004673444200307131,0.021850263699889183
887,658,0.3303195834159851,0.343754380941391,-999.9913330078125,0.14043362438678741,0.004673444200307131,0.021850263699889183
817,658,0.3303195834159851,0.343754380941391,-999.9913330078125,0.14043362438678741,0.004673444200307131,0.021850263699889183
762,658,0.3303195834159851,0.343754380941391,-999.9913330078125,0.14043362438678741,0.004673444200307131,0.021850263699889183
761,658,0.3303195834159851,0.343754380941391,-999.9913330078125,0.14043362438678741,0.004673444200307131,0.021850263699889183
818,658,0.3303195834159851,0.343754380941391,-999.9913330078125,0.14043362438678741,0.004673444200307131,0.021850263699889183
865,659,0.004780481103807688,0.08334220945835114,-1000.006103515625,0.025909755378961563,0.005213685799390078,0.011151540093123913
845,659,0.004780481103807688,0.08334220945835114,-1000.006103515625,0.025909755378961563,0.005213685799390078,0.011151540093123913
829,659,0.004780481103807688,0.08334220945835114,-1000.006103515625,0.025909755378961563,0.005213685799390078,0.011151540093123913
864,659,0.004780481103807688,0.08334220945835114,-1000.006103515625,0.025909755378961563,0.005213685799390078,0.011151540093123913
796,659,0.004780481103807688,0.08334220945835114,-1000.006103515625,0.025909755378961563,0.005213685799390078,0.011151540093123913
776,659,0.004780481103807688,0.08334220945835114,-1000.006103515625,0.025909755378961563,0.005213685799390078,0.011151540093123913
760,659,0.004780481103807688,0.08334220945835114,-1000.006103515625,0.025909755378961563,0.005213685799390078,0.011151540093123913
795,659,0.004780481103807688,0.08334220945835114,-1000.006103515625,0.025909755378961563,0.005213685799390078,0.011151540093123913
888,660,-0.3934186100959778,-0.5409758687019348,-1000.1290893554688,-0.08868969976902008,0.016538087278604507,-0.004320845939218998
864,660,-0.3934186100959778,-0.5409758687019348,-1000.1290893554688,-0.08868969976902008,0.016538087278604507,-0.004320845939218998
856,660,-0.3934186100959778,-0.5409758687019348,-1000.1290893554688,-0.08868969976902008,0.016538087278604507,-0.004320845939218998
871,660,-0.3934186100959778,-0.5409758687019348,-1000.1290893554688,-0.08868969976902008,0.016538087278604507,-0.004320845939218998
819,660,-0.3934186100959778,-0.5409758687019348,-1000.1290893554688,-0.08868969976902008,0.016538087278604507,-0.004320845939218998
795,660,-0.3934186100959778,-0.5409758687019348,-1000.1290893554688,-0.08868969976902008,0.016538087278604507,-0.004320845939218998
787,660,-0.3934186100959778,-0.5409758687019348,-1000.1290893554688,-0.08868969976902008,0.016538087278604507,-0.004320845939218998
802,660,-0.3934186100959778,-0.5409758687019348,-1000.1290893554688,-0.08868969976902008,0.016538087278604507,-0.004320845939218998
887,661,-0.18845272064208984,-0.4430897533893585,-1000.0638427734375,-0.054244015365839005,-0.04403653368353844,0.0013827416114509106
865,661,-0.18845272064208984,-0.4430897533893585,-1000.0638427734375,-0.054244015365839005,-0.04403653368353844,0.0013827416114509106
877,661,-0.18845272064208984,-0.4430897533893585,-1000.0638427734375,-0.054244015365839005,-0.04403653368353844,0.0013827416114509106
863,661,-0.18845272064208984,-0.4430897533893585,-1000.0638427734375,-0.054244015365839005,-0.04403653368353844,0.0013827416114509106
818,661,-0.18845272064208984,-0.4430897533893585,-1000.0638427734375,-0.054244015365839005,-0.04403653368353844,0.0013827416114509106
796,661,-0.18845272064208984,-0.4430897533893585,-1000.0638427734375,-0.054244015365839005,-0.04403653368353844,0.0013827416114509106
808,661,-0.18845272064208984,-0.4430897533893585,-1000.0638427734375,-0.054244015365839005,-0.04403653368353844,0.0013827416114509106
794,661,-0.18845272064208984,-0.4430897533893585,-1000.0638427734375,-0.054244015365839005,-0.04403653368353844,0.0013827416114509106
862,662,0.15470686554908752,0.21645882725715637,-999.9996948242188,0.15255925059318542,-0.0192278865724802,0.00683661038056016
832,662,0.15470686554908752,0.21645882725715637,-999.9996948242188,0.15255925059318542,-0.0192278865724802,0.00683661038056016
831,662,0.15470686554908752,0.21645882725715637,-999.9996948242188,0.15255925059318542,-0.0192278865724802,0.00683661038056016
886,662,0.15470686554908752,0.21645882725715637,-999.9996948242188,0.15255925059318542,-0.0192278865724802,0.00683661038056016
793,662,0.15470686554908752,0.21645882725715637,-999.9996948242188,0.15255925059318542,-0.0192278865724802,0.00683661038056016
763,662,0.15470686554908752,0.21645882725715637,-999.9996948242188,0.15255925059318542,-0.0192278865724802,0.00683661038056016
762,662,0.15470686554908752,0.21645882725715637,-999.9996948242188,0.15255925059318542,-0.0192278865724802,0.00683661038056016
817,662,0.15470686554908752,0.21645882725715637,-999.9996948242188,0.15255925059318542,-0.0192278865724802,0.00683661038056016
871,663,0.028222335502505302,0.43499237298965454,-999.8554077148438,-0.012845964170992374,-0.09714683890342712,0.09517283737659454
856,663,0.028222335502505302,0.43499237298965454,-999.8554077148438,-0.012845964170992374,-0.09714683890342712,0.09517283737659454
853,663,0.028222335502505302,0.43499237298965454,-999.8554077148438,-0.012845964170992374,-0.09714683890342712,0.09517283737659454
897,663,0.028222335502505302,0.43499237298965454,-999.8554077148438,-0.012845964170992374,-0.09714683890342712,0.09517283737659454
802,663,0.028222335502505302,0.43499237298965454,-999.8554077148438,-0.012845964170992374,-0.09714683890342712,0.09517283737659454
787,663,0.028222335502505302,0.43499237298965454,-999.8554077148438,-0.012845964170992374,-0.09714683890342712,0.09517283737659454
784,663,0.028222335502505302,0.43499237298965454,-999.8554077148438,-0.012845964170992374,-0.09714683890342712,0.09517283737659454
828,663,0.028222335502505302,0.43499237298965454,-999.8554077148438,-0.012845964170992374,-0.09714683890342712,0.09517283737659454
882,664,-0.05826953798532486,-0.14401578903198242,-1000.020263671875,-0.1643414944410324,0.014972420409321785,0.06496722251176834
897,664,-0.05826953798532486,-0.14401578903198242,-1000.020263671875,-0.1643414944410324,0.014972420409321785,0.06496722251176834
873,664,-0.05826953798532486,-0.14401578903198242,-1000.020263671875,-0.1643414944410324,0.014972420409321785,0.06496722251176834
881,664,-0.05826953798532486,-0.14401578903198242,-1000.020263671875,-0.1643414944410324,0.014972420409321785,0.06496722251176834
813,664,-0.05826953798532486,-0.14401578903198242,-1000.020263671875,-0.1643414944410324,0.014972420409321785,0.06496722251176834
828,664,-0.05826953798532486,-0.14401578903198242,-1000.020263671875,-0.1643414944410324,0.014972420409321785,0.06496722251176834
804,664,-0.05826953798532486,-0.14401578903198242,-1000.020263671875,-0.1643414944410324,0.014972420409321785,0.06496722251176834
812,664,-0.05826953798532486,-0.14401578903198242,-1000.020263671875,-0.1643414944410324,0.014972420409321785,0.06496722251176834
852,665,0.03656921535730362,-0.22067157924175262,-999.8489379882812,0.10987148433923721,-0.014624450355768204,0.10243301093578339
869,665,0.03656921535730362,-0.22067157924175262,-999.8489379882812,0.10987148433923721,-0.014624450355768204,0.10243301093578339
891,665,0.03656921535730362,-0.22067157924175262,-999.8489379882812,0.10987148433923721,-0.014624450355768204,0.10243301093578339
876,665,0.03656921535730362,-0.22067157924175262,-999.8489379882812,0.10987148433923721,-0.014624450355768204,0.10243301093578339
783,665,0.03656921535730362,-0.22067157924175262,-999.8489379882812,0.10987148433923721,-0.014624450355768204,0.10243301093578339
800,665,0.03656921535730362,-0.22067157924175262,-999.8489379882812,0.10987148433923721,-0.014624450355768204,0.10243301093578339
822,665,0.03656921535730362,-0.22067157924175262,-999.8489379882812,0.10987148433923721,-0.014624450355768204,0.10243301093578339
807,665,0.03656921535730362,-0.22067157924175262,-999.8489379882812,0.10987148433923721,-0.014624450355768204,0.10243301093578339
876,666,-0.05928132310509682,0.3676682114601135,-999.9957885742188,0.02173297293484211,0.024955442175269127,-0.10817313939332962
891,666,-0.05928132310509682,0.3676682114601135,-999.9957885742188,0.02173297293484211,0.024955442175269127,-0.10817313939332962
875,666,-0.05928132310509682,0.3676682114601135,-999.9957885742188,0.02173297293484211,0.024955442175269127,-0.10817313939332962
881,666,-0.05928132310509682,0.3676682114601135,-999.9957885742188,0.02173297293484211,0.024955442175269127,-0.10817313939332962
807,666,-0.05928132310509682,0.3676682114601135,-999.9957885742188,0.02173297293484211,0.024955442175269127,-0.10817313939332962
822,666,-0.05928132310509682,0.3676682114601135,-999.9957885742188,0.02173297293484211,0.024955442175269127,-0.10817313939332962
806,666,-0.05928132310509682,0.3676682114601135,-999.9957885742188,0.02173297293484211,0.024955442175269127,-0.10817313939332962
812,666,-0.05928132310509682,0.3676682114601135,-999.9957885742188,0.02173297293484211,0.024955442175269127,-0.10817313939332962
878,667,-0.27872952818870544,-0.32160723209381104,-1000.02978515625,-0.12054108828306198,-0.001108834519982338,-0.026399867609143257
866,667,-0.27872952818870544,-0.32160723209381104,-1000.02978515625,-0.12054108828306198,-0.001108834519982338,-0.026399867609143257
862,667,-0.27872952818870544,-0.32160723209381104,-1000.02978515625,-0.12054108828306198,-0.001108834519982338,-0.026399867609143257
886,667,-0.27872952818870544,-0.32160723209381104,-1000.02978515625,-0.12054108828306198,-0.001108834519982338,-0.026399867609143257
809,667,-0.27872952818870544,-0.32160723209381104,-1000.02978515625,-0.12054108828306198,-0.001108834519982338,-0.026399867609143257
797,667,-0.27872952818870544,-0.32160723209381104,-1000.02978515625,-0.12054108828306198,-0.001108834519982338,-0.026399867609143257
793,667,-0.27872952818870544,-0.32160723209381104,-1000.02978515625,-0.12054108828306198,-0.001108834519982338,-0.026399867609143257
817,667,-0.27872952818870544,-0.32160723209381104,-1000.02978515625,-0.12054108828306198,-0.001108834519982338,-0.026399867609143257
876,668,0.23533760011196136,0.41904282569885254,-999.9581298828125,-0.04829031974077225,0.08819510787725449,0.011166711337864399
881,668,0.23533760011196136,0.41904282569885254,-999.9581298828125,-0.04829031974077225,0.08819510787725449,0.011166711337864399
873,668,0.23533760011196136,0.41904282569885254,-999.9581298828125,-0.04829031974077225,0.08819510787725449,0.011166711337864399
890,668,0.23533760011196136,0.41904282569885254,-999.9581298828125,-0.04829031974077225,0.08819510787725449,0.011166711337864399
807,668,0.23533760011196136,0.41904282569885254,-999.9581298828125,-0.04829031974077225,0.08819510787725449,0.011166711337864399
812,668,0.23533760011196136,0.41904282569885254,-999.9581298828125,-0.04829031974077225,0.08819510787725449,0.011166711337864399
804,668,0.23533760011196136,0.41904282569885254,-999.9581298828125,-0.04829031974077225,0.08819510787725449,0.011166711337864399
821,668,0.23533760011196136,0.41904282569885254,-999.9581298828125,-0.04829031974077225,0.08819510787725449,0.011166711337864399
854,669,-0.11391875892877579,-0.5598084926605225,-999.948974609375,0.03488832712173462,0.03958461061120033,0.06374972313642502
885,669,-0.11391875892877579,-0.5598084926605225,-999.948974609375,0.03488832712173462,0.03958461061120033,0.06374972313642502
892,669,-0.11391875892877579,-0.5598084926605225,-999.948974609375,0.03488832712173462,0.03958461061120033,0.06374972313642502
875,669,-0.11391875892877579,-0.5598084926605225,-999.948974609375,0.03488832712173462,0.03958461061120033,0.06374972313642502
785,669,-0.11391875892877579,-0.5598084926605225,-999.948974609375,0.03488832712173462,0.03958461061120033,0.06374972313642502
816,669,-0.11391875892877579,-0.5598084926605225,-999.948974609375,0.03488832712173462,0.03958461061120033,0.06374972313642502
823,669,-0.11391875892877579,-0.5598084926605225,-999.948974609375,0.03488832712173462,0.03958461061120033,0.06374972313642502
806,669,-0.11391875892877579,-0.5598084926605225,-999.948974609375,0.03488832712173462,0.03958461061120033,0.06374972313642502
896,670,0.26392316818237305,0.2735326290130615,-1000.004638671875,0.09103244543075562,-0.051612045615911484,0.10043422132730484
878,670,0.26392316818237305,0.2735326290130615,-1000.004638671875,0.09103244543075562,-0.051612045615911484,0.10043422132730484
863,670,0.26392316818237305,0.2735326290130615,-1000.004638671875,0.09103244543075562,-0.051612045615911484,0.10043422132730484
884,670,0.26392316818237305,0.2735326290130615,-1000.004638671875,0.09103244543075562,-0.051612045615911484,0.10043422132730484
827,670,0.26392316818237305,0.2735326290130615,-1000.004638671875,0.09103244543075562,-0.051612045615911484,0.10043422132730484
809,670,0.26392316818237305,0.2735326290130615,-1000.004638671875,0.09103244543075562,-0.051612045615911484,0.10043422132730484
794,670,0.26392316818237305,0.2735326290130615,-1000.004638671875,0.09103244543075562,-0.051612045615911484,0.10043422132730484
815,670,0.26392316818237305,0.2735326290130615,-1000.004638671875,0.09103244543075562,-0.051612045615911484,0.10043422132730484
872,671,0.384556382894516,-0.052065927535295486,-999.991455078125,0.005694962106645107,-0.06516014784574509,-0.03641464561223984
894,671,0.384556382894516,-0.052065927535295486,-999.991455078125,0.005694962106645107,-0.06516014784574509,-0.03641464561223984
879,671,0.384556382894516,-0.052065927535295486,-999.991455078125,0.005694962106645107,-0.06516014784574509,-0.03641464561223984
883,671,0.384556382894516,-0.052065927535295486,-999.991455078125,0.005694962106645107,-0.06516014784574509,-0.03641464561223984
803,671,0.384556382894516,-0.052065927535295486,-999.991455078125,0.005694962106645107,-0.06516014784574509,-0.03641464561223984
825,671,0.384556382894516,-0.052065927535295486,-999.991455078125,0.005694962106645107,-0.06516014784574509,-0.03641464561223984
810,671,0.384556382894516,-0.052065927535295486,-999.991455078125,0.005694962106645107,-0.06516014784574509,-0.03641464561223984
814,671,0.384556382894516,-0.052065927535295486,-999.991455078125,0.005694962106645107,-0.06516014784574509,-0.03641464561223984
895,672,0.09829176962375641,0.09455865621566772,-999.9422607421875,0.25867757201194763,0.07801288366317749,-0.012497987598180771
867,672,0.09829176962375641,0.09455865621566772,-999.9422607421875,0.25867757201194763,0.07801288366317749,-0.012497987598180771
860,672,0.09829176962375641,0.09455865621566772,-999.9422607421875,0.25867757201194763,0.07801288366317749,-0.012497987598180771
874,672,0.09829176962375641,0.09455865621566772,-999.9422607421875,0.25867757201194763,0.07801288366317749,-0.012497987598180771
826,672,0.09829176962375641,0.09455865621566772,-999.9422607421875,0.25867757201194763,0.07801288366317749,-0.012497987598180771
798,672,0.09829176962375641,0.09455865621566772,-999.9422607421875,0.25867757201194763,0.07801288366317749,-0.012497987598180771
791,672,0.09829176962375641,0.09455865621566772,-999.9422607421875,0.25867757201194763,0.07801288366317749,-0.012497987598180771
805,672,0.09829176962375641,0.09455865621566772,-999.9422607421875,0.25867757201194763,0.07801288366317749,-0.012497987598180771
884,673,-0.14558826386928558,0.12541590631008148,-999.9920043945312,-0.14341282844543457,0.0054414658807218075,-0.07901771366596222
883,673,-0.14558826386928558,0.12541590631008148,-999.9920043945312,-0.14341282844543457,0.0054414658807218075,-0.07901771366596222
874,673,-0.14558826386928558,0.12541590631008148,-999.9920043945312,-0.14341282844543457,0.0054414658807218075,-0.07901771366596222
896,673,-0.14558826386928558,0.12541590631008148,-999.9920043945312,-0.14341282844543457,0.0054414658807218075,-0.07901771366596222
815,673,-0.14558826386928558,0.12541590631008148,-999.9920043945312,-0.14341282844543457,0.0054414658807218075,-0.07901771366596222
814,673,-0.14558826386928558,0.12541590631008148,-999.9920043945312,-0.14341282844543457,0.0054414658807218075,-0.07901771366596222
805,673,-0.14558826386928558,0.12541590631008148,-999.9920043945312,-0.14341282844543457,0.0054414658807218075,-0.07901771366596222
827,673,-0.14558826386928558,0.12541590631008148,-999.9920043945312,-0.14341282844543457,0.0054414658807218075,-0.07901771366596222
884,674,-0.03926941379904747,-0.27970466017723083,-1000.021484375,0.0025293822400271893,-0.1581781804561615,-0.05829647555947304
889,674,-0.03926941379904747,-0.27970466017723083,-1000.021484375,0.0025293822400271893,-0.1581781804561615,-0.05829647555947304
882,674,-0.03926941379904747,-0.27970466017723083,-1000.021484375,0.0025293822400271893,-0.1581781804561615,-0.05829647555947304
881,674,-0.03926941379904747,-0.27970466017723083,-1000.021484375,0.0025293822400271893,-0.1581781804561615,-0.05829647555947304
815,674,-0.03926941379904747,-0.27970466017723083,-1000.021484375,0.0025293822400271893,-0.1581781804561615,-0.05829647555947304
820,674,-0.03926941379904747,-0.27970466017723083,-1000.021484375,0.0025293822400271893,-0.1581781804561615,-0.05829647555947304
813,674,-0.03926941379904747,-0.27970466017723083,-1000.021484375,0.0025293822400271893,-0.1581781804561615,-0.05829647555947304
812,674,-0.03926941379904747,-0.27970466017723083,-1000.021484375,0.0025293822400271893,-0.1581781804561615,-0.05829647555947304
874,675,0.3935142457485199,0.23989805579185486,-999.988037109375,-0.02430257946252823,-0.046212729066610336,0.11591704189777374
883,675,0.3935142457485199,0.23989805579185486,-999.988037109375,-0.02430257946252823,-0.046212729066610336,0.11591704189777374
879,675,0.3935142457485199,0.23989805579185486,-999.988037109375,-0.02430257946252823,-0.046212729066610336,0.11591704189777374
895,675,0.3935142457485199,0.23989805579185486,-999.988037109375,-0.02430257946252823,-0.046212729066610336,0.11591704189777374
805,675,0.3935142457485199,0.23989805579185486,-999.988037109375,-0.02430257946252823,-0.046212729066610336,0.11591704189777374
814,675,0.3935142457485199,0.23989805579185486,-999.988037109375,-0.02430257946252823,-0.046212729066610336,0.11591704189777374
810,675,0.3935142457485199,0.23989805579185486,-999.988037109375,-0.02430257946252823,-0.046212729066610336,0.11591704189777374
826,675,0.3935142457485199,0.23989805579185486,-999.988037109375,-0.02430257946252823,-0.046212729066610336,0.11591704189777374
885,676,0.10423438996076584,0.2576790452003479,-1000.0064697265625,0.08181832730770111,-0.005350525490939617,0.0005669575766660273
839,676,0.10423438996076584,0.2576790452003479,-1000.0064697265625,0.08181832730770111,-0.005350525490939617,0.0005669575766660273
838,676,0.10423438996076584,0.2576790452003479,-1000.0064697265625,0.08181832730770111,-0.005350525490939617,0.0005669575766660273
855,676,0.10423438996076584,0.2576790452003479,-1000.0064697265625,0.08181832730770111,-0.005350525490939617,0.0005669575766660273
816,676,0.10423438996076584,0.2576790452003479,-1000.0064697265625,0.08181832730770111,-0.005350525490939617,0.0005669575766660273
770,676,0.10423438996076584,0.2576790452003479,-1000.0064697265625,0.08181832730770111,-0.005350525490939617,0.0005669575766660273
769,676,0.10423438996076584,0.2576790452003479,-1000.0064697265625,0.08181832730770111,-0.005350525490939617,0.0005669575766660273
786,676,0.10423438996076584,0.2576790452003479,-1000.0064697265625,0.08181832730770111,-0.005350525490939617,0.0005669575766660273
887,677,0.08589469641447067,0.19937936961650848,-999.9943237304688,0.11414095014333725,0.01895107887685299,-0.011181434616446495
830,677,0.08589469641447067,0.19937936961650848,-999.9943237304688,0.11414095014333725,0.01895107887685299,-0.011181434616446495
845,677,0.08589469641447067,0.19937936961650848,-999.9943237304688,0.11414095014333725,0.01895107887685299,-0.011181434616446495
865,677,0.08589469641447067,0.19937936961650848,-999.9943237304688,0.11414095014333725,0.01895107887685299,-0.011181434616446495
818,677,0.08589469641447067,0.19937936961650848,-999.9943237304688,0.11414095014333725,0.01895107887685299,-0.011181434616446495
761,677,0.08589469641447067,0.19937936961650848,-999.9943237304688,0.11414095014333725,0.01895107887685299,-0.011181434616446495
776,677,0.08589469641447067,0.19937936961650848,-999.9943237304688,0.11414095014333725,0.01895107887685299,-0.011181434616446495
796,677,0.08589469641447067,0.19937936961650848,-999.9943237304688,0.11414095014333725,0.01895107887685299,-0.011181434616446495
864,678,0.11947333067655563,0.1328328251838684,-999.9207763671875,-0.10402709245681763,-0.06346307694911957,-0.004926854744553566
888,678,0.11947333067655563,0.1328328251838684,-999.9207763671875,-0.10402709245681763,-0.06346307694911957,-0.004926854744553566
877,678,0.11947333067655563,0.1328328251838684,-999.9207763671875,-0.10402709245681763,-0.06346307694911957,-0.004926854744553566
865,678,0.11947333067655563,0.1328328251838684,-999.9207763671875,-0.10402709245681763,-0.06346307694911957,-0.004926854744553566
795,678,0.11947333067655563,0.1328328251838684,-999.9207763671875,-0.10402709245681763,-0.06346307694911957,-0.004926854744553566
819,678,0.11947333067655563,0.1328328251838684,-999.9207763671875,-0.10402709245681763,-0.06346307694911957,-0.004926854744553566
808,678,0.11947333067655563,0.1328328251838684,-999.9207763671875,-0.10402709245681763,-0.06346307694911957,-0.004926854744553566
796,678,0.11947333067655563,0.1328328251838684,-999.9207763671875,-0.10402709245681763,-0.06346307694911957,-0.004926854744553566
888,679,0.34014448523521423,0.22186397016048431,-999.9407958984375,0.157817542552948,0.1564168930053711,-0.10668597370386124
871,679,0.34014448523521423,0.22186397016048431,-999.9407958984375,0.157817542552948,0.1564168930053711,-0.10668597370386124
897,679,0.34014448523521423,0.22186397016048431,-999.9407958984375,0.157817542552948,0.1564168930053711,-0.10668597370386124
882,679,0.34014448523521423,0.22186397016048431,-999.9407958984375,0.157817542552948,0.1564168930053711,-0.10668597370386124
819,679,0.34014448523521423,0.22186397016048431,-999.9407958984375,0.157817542552948,0.1564168930053711,-0.10668597370386124
802,679,0.34014448523521423,0.22186397016048431,-999.9407958984375,0.157817542552948,0.1564168930053711,-0.10668597370386124
828,679,0.34014448523521423,0.22186397016048431,-999.9407958984375,0.157817542552948,0.1564168930053711,-0.10668597370386124
813,679,0.34014448523521423,0.22186397016048431,-999.9407958984375,0.157817542552948,0.1564168930053711,-0.10668597370386124
890,680,-0.25317391753196716,-0.7231919169425964,-1000.1964721679688,-0.04948469251394272,-0.08395227789878845,-0.06955210119485855
851,680,-0.25317391753196716,-0.7231919169425964,-1000.1964721679688,-0.04948469251394272,-0.08395227789878845,-0.06955210119485855
852,680,-0.25317391753196716,-0.7231919169425964,-1000.1964721679688,-0.04948469251394272,-0.08395227789878845,-0.06955210119485855
876,680,-0.25317391753196716,-0.7231919169425964,-1000.1964721679688,-0.04948469251394272,-0.08395227789878845,-0.06955210119485855
821,680,-0.25317391753196716,-0.7231919169425964,-1000.1964721679688,-0.04948469251394272,-0.08395227789878845,-0.06955210119485855
782,680,-0.25317391753196716,-0.7231919169425964,-1000.1964721679688,-0.04948469251394272,-0.08395227789878845,-0.06955210119485855
783,680,-0.25317391753196716,-0.7231919169425964,-1000.1964721679688,-0.04948469251394272,-0.08395227789878845,-0.06955210119485855
807,680,-0.25317391753196716,-0.7231919169425964,-1000.1964721679688,-0.04948469251394272,-0.08395227789878845,-0.06955210119485855
891,681,-0.18473783135414124,-0.44500306248664856,-1000.1246337890625,-0.09899428486824036,-0.006114338990300894,0.023318493738770485
869,681,-0.18473783135414124,-0.44500306248664856,-1000.1246337890625,-0.09899428486824036,-0.006114338990300894,0.023318493738770485
854,681,-0.18473783135414124,-0.44500306248664856,-1000.1246337890625,-0.09899428486824036,-0.006114338990300894,0.023318493738770485
875,681,-0.18473783135414124,-0.44500306248664856,-1000.1246337890625,-0.09899428486824036,-0.006114338990300894,0.023318493738770485
822,681,-0.18473783135414124,-0.44500306248664856,-1000.1246337890625,-0.09899428486824036,-0.006114338990300894,0.023318493738770485
800,681,-0.18473783135414124,-0.44500306248664856,-1000.1246337890625,-0.09899428486824036,-0.006114338990300894,0.023318493738770485
785,681,-0.18473783135414124,-0.44500306248664856,-1000.1246337890625,-0.09899428486824036,-0.006114338990300894,0.023318493738770485
806,681,-0.18473783135414124,-0.44500306248664856,-1000.1246337890625,-0.09899428486824036,-0.006114338990300894,0.023318493738770485
893,682,-0.1314469426870346,0.14635972678661346,-999.9935302734375,0.008654707111418247,0.08151884377002716,-0.0077926525846123695
868,682,-0.1314469426870346,0.14635972678661346,-999.9935302734375,0.008654707111418247,0.08151884377002716,-0.0077926525846123695
857,682,-0.1314469426870346,0.14635972678661346,-999.9935302734375,0.008654707111418247,0.08151884377002716,-0.0077926525846123695
872,682,-0.1314469426870346,0.14635972678661346,-999.9935302734375,0.008654707111418247,0.08151884377002716,-0.0077926525846123695
824,682,-0.1314469426870346,0.14635972678661346,-999.9935302734375,0.008654707111418247,0.08151884377002716,-0.0077926525846123695
799,682,-0.1314469426870346,0.14635972678661346,-999.9935302734375,0.008654707111418247,0.08151884377002716,-0.0077926525846123695
788,682,-0.1314469426870346,0.14635972678661346,-999.9935302734375,0.008654707111418247,0.08151884377002716,-0.0077926525846123695
803,682,-0.1314469426870346,0.14635972678661346,-999.9935302734375,0.008654707111418247,0.08151884377002716,-0.0077926525846123695
894,683,-0.22989387810230255,0.1393289417028427,-999.9457397460938,0.08952721208333969,0.1122547909617424,-0.00792801845818758
858,683,-0.22989387810230255,0.1393289417028427,-999.9457397460938,0.08952721208333969,0.1122547909617424,-0.00792801845818758
859,683,-0.22989387810230255,0.1393289417028427,-999.9457397460938,0.08952721208333969,0.1122547909617424,-0.00792801845818758
879,683,-0.22989387810230255,0.1393289417028427,-999.9457397460938,0.08952721208333969,0.1122547909617424,-0.00792801845818758
825,683,-0.22989387810230255,0.1393289417028427,-999.9457397460938,0.08952721208333969,0.1122547909617424,-0.00792801845818758
789,683,-0.22989387810230255,0.1393289417028427,-999.9457397460938,0.08952721208333969,0.1122547909617424,-0.00792801845818758
790,683,-0.22989387810230255,0.1393289417028427,-999.9457397460938,0.08952721208333969,0.1122547909617424,-0.00792801845818758
810,683,-0.22989387810230255,0.1393289417028427,-999.9457397460938,0.08952721208333969,0.1122547909617424,-0.00792801845818758
896,684,0.22149604558944702,0.014425501227378845,-999.95654296875,0.10019604116678238,0.030328981578350067,-0.03597574308514595
861,684,0.22149604558944702,0.014425501227378845,-999.95654296875,0.10019604116678238,0.030328981578350067,-0.03597574308514595
866,684,0.22149604558944702,0.014425501227378845,-999.95654296875,0.10019604116678238,0.030328981578350067,-0.03597574308514595
878,684,0.22149604558944702,0.014425501227378845,-999.95654296875,0.10019604116678238,0.030328981578350067,-0.03597574308514595
827,684,0.22149604558944702,0.014425501227378845,-999.95654296875,0.10019604116678238,0.030328981578350067,-0.03597574308514595
792,684,0.22149604558944702,0.014425501227378845,-999.95654296875,0.10019604116678238,0.030328981578350067,-0.03597574308514595
797,684,0.22149604558944702,0.014425501227378845,-999.95654296875,0.10019604116678238,0.030328981578350067,-0.03597574308514595
809,684,0.22149604558944702,0.014425501227378845,-999.95654296875,0.10019604116678238,0.030328981578350067,-0.03597574308514595
921,685,-0.06471654027700424,-0.35770347714424133,-1000.0038452148438,-0.018068410456180573,-0.011687020771205425,-0.004648901522159576
910,685,-0.06471654027700424,-0.35770347714424133,-1000.0038452148438,-0.018068410456180573,-0.011687020771205425,-0.004648901522159576
909,685,-0.06471654027700424,-0.35770347714424133,-1000.0038452148438,-0.018068410456180573,-0.011687020771205425,-0.004648901522159576
938,685,-0.06471654027700424,-0.35770347714424133,-1000.0038452148438,-0.018068410456180573,-0.011687020771205425,-0.004648901522159576
852,685,-0.06471654027700424,-0.35770347714424133,-1000.0038452148438,-0.018068410456180573,-0.011687020771205425,-0.004648901522159576
841,685,-0.06471654027700424,-0.35770347714424133,-1000.0038452148438,-0.018068410456180573,-0.011687020771205425,-0.004648901522159576
840,685,-0.06471654027700424,-0.35770347714424133,-1000.0038452148438,-0.018068410456180573,-0.011687020771205425,-0.004648901522159576
869,685,-0.06471654027700424,-0.35770347714424133,-1000.0038452148438,-0.018068410456180573,-0.011687020771205425,-0.004648901522159576
938,686,-0.11475112289190292,-0.3796302378177643,-999.9928588867188,0.03926878422498703,0.0018154820427298546,0.03211627155542374
909,686,-0.11475112289190292,-0.3796302378177643,-999.9928588867188,0.03926878422498703,0.0018154820427298546,0.03211627155542374
918,686,-0.11475112289190292,-0.3796302378177643,-999.9928588867188,0.03926878422498703,0.0018154820427298546,0.03211627155542374
923,686,-0.11475112289190292,-0.3796302378177643,-999.9928588867188,0.03926878422498703,0.0018154820427298546,0.03211627155542374
869,686,-0.11475112289190292,-0.3796302378177643,-999.9928588867188,0.03926878422498703,0.0018154820427298546,0.03211627155542374
840,686,-0.11475112289190292,-0.3796302378177643,-999.9928588867188,0.03926878422498703,0.0018154820427298546,0.03211627155542374
849,686,-0.11475112289190292,-0.3796302378177643,-999.9928588867188,0.03926878422498703,0.0018154820427298546,0.03211627155542374
854,686,-0.11475112289190292,-0.3796302378177643,-999.9928588867188,0.03926878422498703,0.0018154820427298546,0.03211627155542374
919,687,-0.057795993983745575,-0.027903195470571518,-1000.0017700195312,0.039667002856731415,-0.015111029148101807,0.009839987382292747
939,687,-0.057795993983745575,-0.027903195470571518,-1000.0017700195312,0.039667002856731415,-0.015111029148101807,0.009839987382292747
922,687,-0.057795993983745575,-0.027903195470571518,-1000.0017700195312,0.039667002856731415,-0.015111029148101807,0.009839987382292747
912,687,-0.057795993983745575,-0.027903195470571518,-1000.0017700195312,0.039667002856731415,-0.015111029148101807,0.009839987382292747
850,687,-0.057795993983745575,-0.027903195470571518,-1000.0017700195312,0.039667002856731415,-0.015111029148101807,0.009839987382292747
870,687,-0.057795993983745575,-0.027903195470571518,-1000.0017700195312,0.039667002856731415,-0.015111029148101807,0.009839987382292747
853,687,-0.057795993983745575,-0.027903195470571518,-1000.0017700195312,0.039667002856731415,-0.015111029148101807,0.009839987382292747
843,687,-0.057795993983745575,-0.027903195470571518,-1000.0017700195312,0.039667002856731415,-0.015111029148101807,0.009839987382292747
910,688,-0.12608709931373596,-0.3862050175666809,-1000.0095825195312,0.08506322652101517,-0.016629738733172417,0.019163504242897034
921,688,-0.12608709931373596,-0.3862050175666809,-1000.0095825195312,0.08506322652101517,-0.016629738733172417,0.019163504242897034
920,688,-0.12608709931373596,-0.3862050175666809,-1000.0095825195312,0.08506322652101517,-0.016629738733172417,0.019163504242897034
911,688,-0.12608709931373596,-0.3862050175666809,-1000.0095825195312,0.08506322652101517,-0.016629738733172417,0.019163504242897034
841,688,-0.12608709931373596,-0.3862050175666809,-1000.0095825195312,0.08506322652101517,-0.016629738733172417,0.019163504242897034
852,688,-0.12608709931373596,-0.3862050175666809,-1000.0095825195312,0.08506322652101517,-0.016629738733172417,0.019163504242897034
851,688,-0.12608709931373596,-0.3862050175666809,-1000.0095825195312,0.08506322652101517,-0.016629738733172417,0.019163504242897034
842,688,-0.12608709931373596,-0.3862050175666809,-1000.0095825195312,0.08506322652101517,-0.016629738733172417,0.019163504242897034
949,689,-0.10445720702409744,-0.06654313951730728,-1000.0048217773438,-0.0707685574889183,0.01864498108625412,0.07323378324508667
962,689,-0.10445720702409744,-0.06654313951730728,-1000.0048217773438,-0.0707685574889183,0.01864498108625412,0.07323378324508667
941,689,-0.10445720702409744,-0.06654313951730728,-1000.0048217773438,-0.0707685574889183,0.01864498108625412,0.07323378324508667
952,689,-0.10445720702409744,-0.06654313951730728,-1000.0048217773438,-0.0707685574889183,0.01864498108625412,0.07323378324508667
880,689,-0.10445720702409744,-0.06654313951730728,-1000.0048217773438,-0.0707685574889183,0.01864498108625412,0.07323378324508667
893,689,-0.10445720702409744,-0.06654313951730728,-1000.0048217773438,-0.0707685574889183,0.01864498108625412,0.07323378324508667
872,689,-0.10445720702409744,-0.06654313951730728,-1000.0048217773438,-0.0707685574889183,0.01864498108625412,0.07323378324508667
883,689,-0.10445720702409744,-0.06654313951730728,-1000.0048217773438,-0.0707685574889183,0.01864498108625412,0.07323378324508667
965,690,0.43673866987228394,0.5022394061088562,-999.9353637695312,0.011744115501642227,0.007343706674873829,-0.026056773960590363
943,690,0.43673866987228394,0.5022394061088562,-999.9353637695312,0.011744115501642227,0.007343706674873829,-0.026056773960590363
929,690,0.43673866987228394,0.5022394061088562,-999.9353637695312,0.011744115501642227,0.007343706674873829,-0.026056773960590363
930,690,0.43673866987228394,0.5022394061088562,-999.9353637695312,0.011744115501642227,0.007343706674873829,-0.026056773960590363
896,690,0.43673866987228394,0.5022394061088562,-999.9353637695312,0.011744115501642227,0.007343706674873829,-0.026056773960590363
874,690,0.43673866987228394,0.5022394061088562,-999.9353637695312,0.011744115501642227,0.007343706674873829,-0.026056773960590363
860,690,0.43673866987228394,0.5022394061088562,-999.9353637695312,0.011744115501642227,0.007343706674873829,-0.026056773960590363
861,690,0.43673866987228394,0.5022394061088562,-999.9353637695312,0.011744115501642227,0.007343706674873829,-0.026056773960590363
953,691,0.18737049400806427,0.27887162566185,-999.971435546875,-0.07154759019613266,-0.07513262331485748,-0.06388335675001144
950,691,0.18737049400806427,0.27887162566185,-999.971435546875,-0.07154759019613266,-0.07513262331485748,-0.06388335675001144
949,691,0.18737049400806427,0.27887162566185,-999.971435546875,-0.07154759019613266,-0.07513262331485748,-0.06388335675001144
952,691,0.18737049400806427,0.27887162566185,-999.971435546875,-0.07154759019613266,-0.07513262331485748,-0.06388335675001144
884,691,0.18737049400806427,0.27887162566185,-999.971435546875,-0.07154759019613266,-0.07513262331485748,-0.06388335675001144
881,691,0.18737049400806427,0.27887162566185,-999.971435546875,-0.07154759019613266,-0.07513262331485748,-0.06388335675001144
880,691,0.18737049400806427,0.27887162566185,-999.971435546875,-0.07154759019613266,-0.07513262331485748,-0.06388335675001144
883,691,0.18737049400806427,0.27887162566185,-999.971435546875,-0.07154759019613266,-0.07513262331485748,-0.06388335675001144
944,692,-0.3012987971305847,-0.5289523601531982,-1000.0521240234375,-0.058738648891448975,0.07559032738208771,0.047467317432165146
961,692,-0.3012987971305847,-0.5289523601531982,-1000.0521240234375,-0.058738648891448975,0.07559032738208771,0.047467317432165146
949,692,-0.3012987971305847,-0.5289523601531982,-1000.0521240234375,-0.058738648891448975,0.07559032738208771,0.047467317432165146
950,692,-0.3012987971305847,-0.5289523601531982,-1000.0521240234375,-0.058738648891448975,0.07559032738208771,0.047467317432165146
875,692,-0.3012987971305847,-0.5289523601531982,-1000.0521240234375,-0.058738648891448975,0.07559032738208771,0.047467317432165146
892,692,-0.3012987971305847,-0.5289523601531982,-1000.0521240234375,-0.058738648891448975,0.07559032738208771,0.047467317432165146
880,692,-0.3012987971305847,-0.5289523601531982,-1000.0521240234375,-0.058738648891448975,0.07559032738208771,0.047467317432165146
881,692,-0.3012987971305847,-0.5289523601531982,-1000.0521240234375,-0.058738648891448975,0.07559032738208771,0.047467317432165146
924,693,0.12174222618341446,0.15771999955177307,-1000.0339965820312,0.060876842588186264,0.05959800258278847,-0.06952733546495438
937,693,0.12174222618341446,0.15771999955177307,-1000.0339965820312,0.060876842588186264,0.05959800258278847,-0.06952733546495438
962,693,0.12174222618341446,0.15771999955177307,-1000.0339965820312,0.060876842588186264,0.05959800258278847,-0.06952733546495438
949,693,0.12174222618341446,0.15771999955177307,-1000.0339965820312,0.060876842588186264,0.05959800258278847,-0.06952733546495438
855,693,0.12174222618341446,0.15771999955177307,-1000.0339965820312,0.060876842588186264,0.05959800258278847,-0.06952733546495438
868,693,0.12174222618341446,0.15771999955177307,-1000.0339965820312,0.060876842588186264,0.05959800258278847,-0.06952733546495438
893,693,0.12174222618341446,0.15771999955177307,-1000.0339965820312,0.060876842588186264,0.05959800258278847,-0.06952733546495438
880,693,0.12174222618341446,0.15771999955177307,-1000.0339965820312,0.060876842588186264,0.05959800258278847,-0.06952733546495438
964,694,0.6421890258789062,0.325883686542511,-999.9227905273438,0.1567308008670807,0.05587408319115639,0.06887310743331909
948,694,0.6421890258789062,0.325883686542511,-999.9227905273438,0.1567308008670807,0.05587408319115639,0.06887310743331909
928,694,0.6421890258789062,0.325883686542511,-999.9227905273438,0.1567308008670807,0.05587408319115639,0.06887310743331909
936,694,0.6421890258789062,0.325883686542511,-999.9227905273438,0.1567308008670807,0.05587408319115639,0.06887310743331909
895,694,0.6421890258789062,0.325883686542511,-999.9227905273438,0.1567308008670807,0.05587408319115639,0.06887310743331909
879,694,0.6421890258789062,0.325883686542511,-999.9227905273438,0.1567308008670807,0.05587408319115639,0.06887310743331909
859,694,0.6421890258789062,0.325883686542511,-999.9227905273438,0.1567308008670807,0.05587408319115639,0.06887310743331909
867,694,0.6421890258789062,0.325883686542511,-999.9227905273438,0.1567308008670807,0.05587408319115639,0.06887310743331909
958,695,-0.18022949993610382,-0.3067108988761902,-1000.0858764648438,-0.07795654982328415,-0.1959313303232193,0.10356324166059494
953,695,-0.18022949993610382,-0.3067108988761902,-1000.0858764648438,-0.07795654982328415,-0.1959313303232193,0.10356324166059494
932,695,-0.18022949993610382,-0.3067108988761902,-1000.0858764648438,-0.07795654982328415,-0.1959313303232193,0.10356324166059494
946,695,-0.18022949993610382,-0.3067108988761902,-1000.0858764648438,-0.07795654982328415,-0.1959313303232193,0.10356324166059494
889,695,-0.18022949993610382,-0.3067108988761902,-1000.0858764648438,-0.07795654982328415,-0.1959313303232193,0.10356324166059494
884,695,-0.18022949993610382,-0.3067108988761902,-1000.0858764648438,-0.07795654982328415,-0.1959313303232193,0.10356324166059494
863,695,-0.18022949993610382,-0.3067108988761902,-1000.0858764648438,-0.07795654982328415,-0.1959313303232193,0.10356324166059494
877,695,-0.18022949993610382,-0.3067108988761902,-1000.0858764648438,-0.07795654982328415,-0.1959313303232193,0.10356324166059494
932,696,0.3225010335445404,0.1826845109462738,-1000.0054321289062,0.20728211104869843,-0.0027301982045173645,0.029561487957835197
947,696,0.3225010335445404,0.1826845109462738,-1000.0054321289062,0.20728211104869843,-0.0027301982045173645,0.029561487957835197
955,696,0.3225010335445404,0.1826845109462738,-1000.0054321289062,0.20728211104869843,-0.0027301982045173645,0.029561487957835197
956,696,0.3225010335445404,0.1826845109462738,-1000.0054321289062,0.20728211104869843,-0.0027301982045173645,0.029561487957835197
863,696,0.3225010335445404,0.1826845109462738,-1000.0054321289062,0.20728211104869843,-0.0027301982045173645,0.029561487957835197
878,696,0.3225010335445404,0.1826845109462738,-1000.0054321289062,0.20728211104869843,-0.0027301982045173645,0.029561487957835197
886,696,0.3225010335445404,0.1826845109462738,-1000.0054321289062,0.20728211104869843,-0.0027301982045173645,0.029561487957835197
887,696,0.3225010335445404,0.1826845109462738,-1000.0054321289062,0.20728211104869843,-0.0027301982045173645,0.029561487957835197
939,697,0.007902653887867928,-0.07456296682357788,-1000.1881103515625,-0.2805728018283844,0.004710001405328512,-0.09923199564218521
920,697,0.007902653887867928,-0.07456296682357788,-1000.1881103515625,-0.2805728018283844,0.004710001405328512,-0.09923199564218521
959,697,0.007902653887867928,-0.07456296682357788,-1000.1881103515625,-0.2805728018283844,0.004710001405328512,-0.09923199564218521
942,697,0.007902653887867928,-0.07456296682357788,-1000.1881103515625,-0.2805728018283844,0.004710001405328512,-0.09923199564218521
870,697,0.007902653887867928,-0.07456296682357788,-1000.1881103515625,-0.2805728018283844,0.004710001405328512,-0.09923199564218521
851,697,0.007902653887867928,-0.07456296682357788,-1000.1881103515625,-0.2805728018283844,0.004710001405328512,-0.09923199564218521
890,697,0.007902653887867928,-0.07456296682357788,-1000.1881103515625,-0.2805728018283844,0.004710001405328512,-0.09923199564218521
873,697,0.007902653887867928,-0.07456296682357788,-1000.1881103515625,-0.2805728018283844,0.004710001405328512,-0.09923199564218521
966,698,0.25791797041893005,0.4794745445251465,-999.8394775390625,-0.0294746495783329,0.0361335314810276,0.09913847595453262
922,698,0.25791797041893005,0.4794745445251465,-999.8394775390625,-0.0294746495783329,0.0361335314810276,0.09913847595453262
939,698,0.25791797041893005,0.4794745445251465,-999.8394775390625,-0.0294746495783329,0.0361335314810276,0.09913847595453262
942,698,0.25791797041893005,0.4794745445251465,-999.8394775390625,-0.0294746495783329,0.0361335314810276,0.09913847595453262
897,698,0.25791797041893005,0.4794745445251465,-999.8394775390625,-0.0294746495783329,0.0361335314810276,0.09913847595453262
853,698,0.25791797041893005,0.4794745445251465,-999.8394775390625,-0.0294746495783329,0.0361335314810276,0.09913847595453262
870,698,0.25791797041893005,0.4794745445251465,-999.8394775390625,-0.0294746495783329,0.0361335314810276,0.09913847595453262
873,698,0.25791797041893005,0.4794745445251465,-999.8394775390625,-0.0294746495783329,0.0361335314810276,0.09913847595453262
926,699,0.31098055839538574,0.2314872145652771,-999.9548950195312,0.03922398015856743,0.08346202224493027,-0.05486457422375679
927,699,0.31098055839538574,0.2314872145652771,-999.9548950195312,0.03922398015856743,0.08346202224493027,-0.05486457422375679
963,699,0.31098055839538574,0.2314872145652771,-999.9548950195312,0.03922398015856743,0.08346202224493027,-0.05486457422375679
941,699,0.31098055839538574,0.2314872145652771,-999.9548950195312,0.03922398015856743,0.08346202224493027,-0.05486457422375679
857,699,0.31098055839538574,0.2314872145652771,-999.9548950195312,0.03922398015856743,0.08346202224493027,-0.05486457422375679
858,699,0.31098055839538574,0.2314872145652771,-999.9548950195312,0.03922398015856743,0.08346202224493027,-0.05486457422375679
894,699,0.31098055839538574,0.2314872145652771,-999.9548950195312,0.03922398015856743,0.08346202224493027,-0.05486457422375679
872,699,0.31098055839538574,0.2314872145652771,-999.9548950195312,0.03922398015856743,0.08346202224493027,-0.05486457422375679
911,700,-0.15678495168685913,-0.35198232531547546,-1000.0018310546875,0.15428340435028076,-0.002574017969891429,-0.01666489616036415
920,700,-0.15678495168685913,-0.35198232531547546,-1000.0018310546875,0.15428340435028076,-0.002574017969891429,-0.01666489616036415
939,700,-0.15678495168685913,-0.35198232531547546,-1000.0018310546875,0.15428340435028076,-0.002574017969891429,-0.01666489616036415
919,700,-0.15678495168685913,-0.35198232531547546,-1000.0018310546875,0.15428340435028076,-0.002574017969891429,-0.01666489616036415
842,700,-0.15678495168685913,-0.35198232531547546,-1000.0018310546875,0.15428340435028076,-0.002574017969891429,-0.01666489616036415
851,700,-0.15678495168685913,-0.35198232531547546,-1000.0018310546875,0.15428340435028076,-0.002574017969891429,-0.01666489616036415
870,700,-0.15678495168685913,-0.35198232531547546,-1000.0018310546875,0.15428340435028076,-0.002574017969891429,-0.01666489616036415
850,700,-0.15678495168685913,-0.35198232531547546,-1000.0018310546875,0.15428340435028076,-0.002574017969891429,-0.01666489616036415
908,701,-0.15440446138381958,-0.5100085735321045,-1000.018310546875,-0.05036894977092743,0.0074820443987846375,0.005292881745845079
954,701,-0.15440446138381958,-0.5100085735321045,-1000.018310546875,-0.05036894977092743,0.0074820443987846375,0.005292881745845079
923,701,-0.15440446138381958,-0.5100085735321045,-1000.018310546875,-0.05036894977092743,0.0074820443987846375,0.005292881745845079
918,701,-0.15440446138381958,-0.5100085735321045,-1000.018310546875,-0.05036894977092743,0.0074820443987846375,0.005292881745845079
839,701,-0.15440446138381958,-0.5100085735321045,-1000.018310546875,-0.05036894977092743,0.0074820443987846375,0.005292881745845079
885,701,-0.15440446138381958,-0.5100085735321045,-1000.018310546875,-0.05036894977092743,0.0074820443987846375,0.005292881745845079
854,701,-0.15440446138381958,-0.5100085735321045,-1000.018310546875,-0.05036894977092743,0.0074820443987846375,0.005292881745845079
849,701,-0.15440446138381958,-0.5100085735321045,-1000.018310546875,-0.05036894977092743,0.0074820443987846375,0.005292881745845079
924,702,-0.16994689404964447,-0.018279533833265305,-1000.0088500976562,-0.0527077242732048,-0.007522785570472479,0.014499915763735771
907,702,-0.16994689404964447,-0.018279533833265305,-1000.0088500976562,-0.0527077242732048,-0.007522785570472479,0.014499915763735771
917,702,-0.16994689404964447,-0.018279533833265305,-1000.0088500976562,-0.0527077242732048,-0.007522785570472479,0.014499915763735771
937,702,-0.16994689404964447,-0.018279533833265305,-1000.0088500976562,-0.0527077242732048,-0.007522785570472479,0.014499915763735771
855,702,-0.16994689404964447,-0.018279533833265305,-1000.0088500976562,-0.0527077242732048,-0.007522785570472479,0.014499915763735771
838,702,-0.16994689404964447,-0.018279533833265305,-1000.0088500976562,-0.0527077242732048,-0.007522785570472479,0.014499915763735771
848,702,-0.16994689404964447,-0.018279533833265305,-1000.0088500976562,-0.0527077242732048,-0.007522785570472479,0.014499915763735771
868,702,-0.16994689404964447,-0.018279533833265305,-1000.0088500976562,-0.0527077242732048,-0.007522785570472479,0.014499915763735771
925,703,-0.12444902211427689,-0.04002280533313751,-999.98974609375,-0.008513701148331165,-0.011567455716431141,-0.004504816606640816
913,703,-0.12444902211427689,-0.04002280533313751,-999.98974609375,-0.008513701148331165,-0.011567455716431141,-0.004504816606640816
912,703,-0.12444902211427689,-0.04002280533313751,-999.98974609375,-0.008513701148331165,-0.011567455716431141,-0.004504816606640816
922,703,-0.12444902211427689,-0.04002280533313751,-999.98974609375,-0.008513701148331165,-0.011567455716431141,-0.004504816606640816
856,703,-0.12444902211427689,-0.04002280533313751,-999.98974609375,-0.008513701148331165,-0.011567455716431141,-0.004504816606640816
844,703,-0.12444902211427689,-0.04002280533313751,-999.98974609375,-0.008513701148331165,-0.011567455716431141,-0.004504816606640816
843,703,-0.12444902211427689,-0.04002280533313751,-999.98974609375,-0.008513701148331165,-0.011567455716431141,-0.004504816606640816
853,703,-0.12444902211427689,-0.04002280533313751,-999.98974609375,-0.008513701148331165,-0.011567455716431141,-0.004504816606640816
937,704,-0.09011863172054291,0.008547503501176834,-999.9841918945312,0.017484672367572784,0.012332676909863949,-0.009805606678128242
917,704,-0.09011863172054291,0.008547503501176834,-999.9841918945312,0.017484672367572784,0.012332676909863949,-0.009805606678128242
906,704,-0.09011863172054291,0.008547503501176834,-999.9841918945312,0.017484672367572784,0.012332676909863949,-0.009805606678128242
926,704,-0.09011863172054291,0.008547503501176834,-999.9841918945312,0.017484672367572784,0.012332676909863949,-0.009805606678128242
868,704,-0.09011863172054291,0.008547503501176834,-999.9841918945312,0.017484672367572784,0.012332676909863949,-0.009805606678128242
848,704,-0.09011863172054291,0.008547503501176834,-999.9841918945312,0.017484672367572784,0.012332676909863949,-0.009805606678128242
837,704,-0.09011863172054291,0.008547503501176834,-999.9841918945312,0.017484672367572784,0.012332676909863949,-0.009805606678128242
857,704,-0.09011863172054291,0.008547503501176834,-999.9841918945312,0.017484672367572784,0.012332676909863949,-0.009805606678128242
961,705,0.1750190407037735,0.18212692439556122,-999.9320068359375,0.1933760792016983,-0.0334644541144371,0.027761369943618774
954,705,0.1750190407037735,0.18212692439556122,-999.9320068359375,0.1933760792016983,-0.0334644541144371,0.027761369943618774
924,705,0.1750190407037735,0.18212692439556122,-999.9320068359375,0.1933760792016983,-0.0334644541144371,0.027761369943618774
949,705,0.1750190407037735,0.18212692439556122,-999.9320068359375,0.1933760792016983,-0.0334644541144371,0.027761369943618774
892,705,0.1750190407037735,0.18212692439556122,-999.9320068359375,0.1933760792016983,-0.0334644541144371,0.027761369943618774
885,705,0.1750190407037735,0.18212692439556122,-999.9320068359375,0.1933760792016983,-0.0334644541144371,0.027761369943618774
855,705,0.1750190407037735,0.18212692439556122,-999.9320068359375,0.1933760792016983,-0.0334644541144371,0.027761369943618774
880,705,0.1750190407037735,0.18212692439556122,-999.9320068359375,0.1933760792016983,-0.0334644541144371,0.027761369943618774
926,706,-0.15820656716823578,0.000470224826131016,-1000.0172119140625,0.049456190317869186,-0.0024512873496860266,0.022196367383003235
906,706,-0.15820656716823578,0.000470224826131016,-1000.0172119140625,0.049456190317869186,-0.0024512873496860266,0.022196367383003235
905,706,-0.15820656716823578,0.000470224826131016,-1000.0172119140625,0.049456190317869186,-0.0024512873496860266,0.022196367383003235
927,706,-0.15820656716823578,0.000470224826131016,-1000.0172119140625,0.049456190317869186,-0.0024512873496860266,0.022196367383003235
857,706,-0.15820656716823578,0.000470224826131016,-1000.0172119140625,0.049456190317869186,-0.0024512873496860266,0.022196367383003235
837,706,-0.15820656716823578,0.000470224826131016,-1000.0172119140625,0.049456190317869186,-0.0024512873496860266,0.022196367383003235
836,706,-0.15820656716823578,0.000470224826131016,-1000.0172119140625,0.049456190317869186,-0.0024512873496860266,0.022196367383003235
858,706,-0.15820656716823578,0.000470224826131016,-1000.0172119140625,0.049456190317869186,-0.0024512873496860266,0.022196367383003235
927,707,-0.2732420861721039,-0.09031319618225098,-999.981201171875,-0.03371674194931984,0.008675197139382362,-0.0188515093177557
905,707,-0.2732420861721039,-0.09031319618225098,-999.981201171875,-0.03371674194931984,0.008675197139382362,-0.0188515093177557
904,707,-0.2732420861721039,-0.09031319618225098,-999.981201171875,-0.03371674194931984,0.008675197139382362,-0.0188515093177557
928,707,-0.2732420861721039,-0.09031319618225098,-999.981201171875,-0.03371674194931984,0.008675197139382362,-0.0188515093177557
858,707,-0.2732420861721039,-0.09031319618225098,-999.981201171875,-0.03371674194931984,0.008675197139382362,-0.0188515093177557
836,707,-0.2732420861721039,-0.09031319618225098,-999.981201171875,-0.03371674194931984,0.008675197139382362,-0.0188515093177557
835,707,-0.2732420861721039,-0.09031319618225098,-999.981201171875,-0.03371674194931984,0.008675197139382362,-0.0188515093177557
859,707,-0.2732420861721039,-0.09031319618225098,-999.981201171875,-0.03371674194931984,0.008675197139382362,-0.0188515093177557
958,708,0.10102150589227676,-0.25282740592956543,-999.93896484375,-0.060202717781066895,0.014568198472261429,-0.14763391017913818
946,708,0.10102150589227676,-0.25282740592956543,-999.93896484375,-0.060202717781066895,0.014568198472261429,-0.14763391017913818
957,708,0.10102150589227676,-0.25282740592956543,-999.93896484375,-0.060202717781066895,0.014568198472261429,-0.14763391017913818
951,708,0.10102150589227676,-0.25282740592956543,-999.93896484375,-0.060202717781066895,0.014568198472261429,-0.14763391017913818
889,708,0.10102150589227676,-0.25282740592956543,-999.93896484375,-0.060202717781066895,0.014568198472261429,-0.14763391017913818
877,708,0.10102150589227676,-0.25282740592956543,-999.93896484375,-0.060202717781066895,0.014568198472261429,-0.14763391017913818
888,708,0.10102150589227676,-0.25282740592956543,-999.93896484375,-0.060202717781066895,0.014568198472261429,-0.14763391017913818
882,708,0.10102150589227676,-0.25282740592956543,-999.93896484375,-0.060202717781066895,0.014568198472261429,-0.14763391017913818
913,709,-0.14457233250141144,-0.05645313858985901,-1000.0076904296875,-0.10705683380365372,-0.009059783071279526,0.01985682174563408
925,709,-0.14457233250141144,-0.05645313858985901,-1000.0076904296875,-0.10705683380365372,-0.009059783071279526,0.01985682174563408
933,709,-0.14457233250141144,-0.05645313858985901,-1000.0076904296875,-0.10705683380365372,-0.009059783071279526,0.01985682174563408
898,709,-0.14457233250141144,-0.05645313858985901,-1000.0076904296875,-0.10705683380365372,-0.009059783071279526,0.01985682174563408
844,709,-0.14457233250141144,-0.05645313858985901,-1000.0076904296875,-0.10705683380365372,-0.009059783071279526,0.01985682174563408
856,709,-0.14457233250141144,-0.05645313858985901,-1000.0076904296875,-0.10705683380365372,-0.009059783071279526,0.01985682174563408
864,709,-0.14457233250141144,-0.05645313858985901,-1000.0076904296875,-0.10705683380365372,-0.009059783071279526,0.01985682174563408
829,709,-0.14457233250141144,-0.05645313858985901,-1000.0076904296875,-0.10705683380365372,-0.009059783071279526,0.01985682174563408
928,710,-0.20110224187374115,0.020591353997588158,-1000.0182495117188,-0.000773359090089798,0.0029426058754324913,-0.0006488655926659703
904,710,-0.20110224187374115,0.020591353997588158,-1000.0182495117188,-0.000773359090089798,0.0029426058754324913,-0.0006488655926659703
916,710,-0.20110224187374115,0.020591353997588158,-1000.0182495117188,-0.000773359090089798,0.0029426058754324913,-0.0006488655926659703
936,710,-0.20110224187374115,0.020591353997588158,-1000.0182495117188,-0.000773359090089798,0.0029426058754324913,-0.0006488655926659703
859,710,-0.20110224187374115,0.020591353997588158,-1000.0182495117188,-0.000773359090089798,0.0029426058754324913,-0.0006488655926659703
835,710,-0.20110224187374115,0.020591353997588158,-1000.0182495117188,-0.000773359090089798,0.0029426058754324913,-0.0006488655926659703
847,710,-0.20110224187374115,0.020591353997588158,-1000.0182495117188,-0.000773359090089798,0.0029426058754324913,-0.0006488655926659703
867,710,-0.20110224187374115,0.020591353997588158,-1000.0182495117188,-0.000773359090089798,0.0029426058754324913,-0.0006488655926659703
936,711,-0.2421603947877884,-0.11858582496643066,-999.9805297851562,0.08931603282690048,0.008929646573960781,-0.013598257675766945
916,711,-0.2421603947877884,-0.11858582496643066,-999.9805297851562,0.08931603282690048,0.008929646573960781,-0.013598257675766945
903,711,-0.2421603947877884,-0.11858582496643066,-999.9805297851562,0.08931603282690048,0.008929646573960781,-0.013598257675766945
929,711,-0.2421603947877884,-0.11858582496643066,-999.9805297851562,0.08931603282690048,0.008929646573960781,-0.013598257675766945
867,711,-0.2421603947877884,-0.11858582496643066,-999.9805297851562,0.08931603282690048,0.008929646573960781,-0.013598257675766945
847,711,-0.2421603947877884,-0.11858582496643066,-999.9805297851562,0.08931603282690048,0.008929646573960781,-0.013598257675766945
834,711,-0.2421603947877884,-0.11858582496643066,-999.9805297851562,0.08931603282690048,0.008929646573960781,-0.013598257675766945
860,711,-0.2421603947877884,-0.11858582496643066,-999.9805297851562,0.08931603282690048,0.008929646573960781,-0.013598257675766945
929,712,-0.13966037333011627,-0.25154832005500793,-1000.02197265625,0.09903623908758163,-0.0008466292056255043,0.01720786653459072
903,712,-0.13966037333011627,-0.25154832005500793,-1000.02197265625,0.09903623908758163,-0.0008466292056255043,0.01720786653459072
902,712,-0.13966037333011627,-0.25154832005500793,-1000.02197265625,0.09903623908758163,-0.0008466292056255043,0.01720786653459072
930,712,-0.13966037333011627,-0.25154832005500793,-1000.02197265625,0.09903623908758163,-0.0008466292056255043,0.01720786653459072
860,712,-0.13966037333011627,-0.25154832005500793,-1000.02197265625,0.09903623908758163,-0.0008466292056255043,0.01720786653459072
834,712,-0.13966037333011627,-0.25154832005500793,-1000.02197265625,0.09903623908758163,-0.0008466292056255043,0.01720786653459072
833,712,-0.13966037333011627,-0.25154832005500793,-1000.02197265625,0.09903623908758163,-0.0008466292056255043,0.01720786653459072
861,712,-0.13966037333011627,-0.25154832005500793,-1000.02197265625,0.09903623908758163,-0.0008466292056255043,0.01720786653459072
930,713,-0.022046750411391258,-0.16436901688575745,-999.9803466796875,0.0003523054765537381,0.016031181439757347,-0.02172483690083027
902,713,-0.022046750411391258,-0.16436901688575745,-999.9803466796875,0.0003523054765537381,0.016031181439757347,-0.02172483690083027
915,713,-0.022046750411391258,-0.16436901688575745,-999.9803466796875,0.0003523054765537381,0.016031181439757347,-0.02172483690083027
935,713,-0.022046750411391258,-0.16436901688575745,-999.9803466796875,0.0003523054765537381,0.016031181439757347,-0.02172483690083027
861,713,-0.022046750411391258,-0.16436901688575745,-999.9803466796875,0.0003523054765537381,0.016031181439757347,-0.02172483690083027
833,713,-0.022046750411391258,-0.16436901688575745,-999.9803466796875,0.0003523054765537381,0.016031181439757347,-0.02172483690083027
846,713,-0.022046750411391258,-0.16436901688575745,-999.9803466796875,0.0003523054765537381,0.016031181439757347,-0.02172483690083027
866,713,-0.022046750411391258,-0.16436901688575745,-999.9803466796875,0.0003523054765537381,0.016031181439757347,-0.02172483690083027
935,714,-0.042447637766599655,-0.13894569873809814,-1000.0112915039062,-0.03531112149357796,-0.015508389100432396,-0.007096147630363703
915,714,-0.042447637766599655,-0.13894569873809814,-1000.0112915039062,-0.03531112149357796,-0.015508389100432396,-0.007096147630363703
901,714,-0.042447637766599655,-0.13894569873809814,-1000.0112915039062,-0.03531112149357796,-0.015508389100432396,-0.007096147630363703
931,714,-0.042447637766599655,-0.13894569873809814,-1000.0112915039062,-0.03531112149357796,-0.015508389100432396,-0.007096147630363703
866,714,-0.042447637766599655,-0.13894569873809814,-1000.0112915039062,-0.03531112149357796,-0.015508389100432396,-0.007096147630363703
846,714,-0.042447637766599655,-0.13894569873809814,-1000.0112915039062,-0.03531112149357796,-0.015508389100432396,-0.007096147630363703
832,714,-0.042447637766599655,-0.13894569873809814,-1000.0112915039062,-0.03531112149357796,-0.015508389100432396,-0.007096147630363703
862,714,-0.042447637766599655,-0.13894569873809814,-1000.0112915039062,-0.03531112149357796,-0.015508389100432396,-0.007096147630363703
955,715,-0.38510411977767944,-0.3999481201171875,-1000.01123046875,-0.16407974064350128,-0.001378295011818409,-0.026713918894529343
900,715,-0.38510411977767944,-0.3999481201171875,-1000.01123046875,-0.16407974064350128,-0.001378295011818409,-0.026713918894529343
899,715,-0.38510411977767944,-0.3999481201171875,-1000.01123046875,-0.16407974064350128,-0.001378295011818409,-0.026713918894529343
956,715,-0.38510411977767944,-0.3999481201171875,-1000.01123046875,-0.16407974064350128,-0.001378295011818409,-0.026713918894529343
886,715,-0.38510411977767944,-0.3999481201171875,-1000.01123046875,-0.16407974064350128,-0.001378295011818409,-0.026713918894529343
831,715,-0.38510411977767944,-0.3999481201171875,-1000.01123046875,-0.16407974064350128,-0.001378295011818409,-0.026713918894529343
830,715,-0.38510411977767944,-0.3999481201171875,-1000.01123046875,-0.16407974064350128,-0.001378295011818409,-0.026713918894529343
887,715,-0.38510411977767944,-0.3999481201171875,-1000.01123046875,-0.16407974064350128,-0.001378295011818409,-0.026713918894529343
934,716,-0.0059888726100325584,-0.095326267182827,-999.9926147460938,-0.032833732664585114,-0.006323713343590498,-0.016159599646925926
914,716,-0.0059888726100325584,-0.095326267182827,-999.9926147460938,-0.032833732664585114,-0.006323713343590498,-0.016159599646925926
898,716,-0.0059888726100325584,-0.095326267182827,-999.9926147460938,-0.032833732664585114,-0.006323713343590498,-0.016159599646925926
933,716,-0.0059888726100325584,-0.095326267182827,-999.9926147460938,-0.032833732664585114,-0.006323713343590498,-0.016159599646925926
865,716,-0.0059888726100325584,-0.095326267182827,-999.9926147460938,-0.032833732664585114,-0.006323713343590498,-0.016159599646925926
845,716,-0.0059888726100325584,-0.095326267182827,-999.9926147460938,-0.032833732664585114,-0.006323713343590498,-0.016159599646925926
829,716,-0.0059888726100325584,-0.095326267182827,-999.9926147460938,-0.032833732664585114,-0.006323713343590498,-0.016159599646925926
864,716,-0.0059888726100325584,-0.095326267182827,-999.9926147460938,-0.032833732664585114,-0.006323713343590498,-0.016159599646925926
957,717,0.4779208302497864,0.6371067762374878,-999.8379516601562,0.10508229583501816,-0.01531760673969984,0.018778206780552864
933,717,0.4779208302497864,0.6371067762374878,-999.8379516601562,0.10508229583501816,-0.01531760673969984,0.018778206780552864
925,717,0.4779208302497864,0.6371067762374878,-999.8379516601562,0.10508229583501816,-0.01531760673969984,0.018778206780552864
940,717,0.4779208302497864,0.6371067762374878,-999.8379516601562,0.10508229583501816,-0.01531760673969984,0.018778206780552864
888,717,0.4779208302497864,0.6371067762374878,-999.8379516601562,0.10508229583501816,-0.01531760673969984,0.018778206780552864
864,717,0.4779208302497864,0.6371067762374878,-999.8379516601562,0.10508229583501816,-0.01531760673969984,0.018778206780552864
856,717,0.4779208302497864,0.6371067762374878,-999.8379516601562,0.10508229583501816,-0.01531760673969984,0.018778206780552864
871,717,0.4779208302497864,0.6371067762374878,-999.8379516601562,0.10508229583501816,-0.01531760673969984,0.018778206780552864
956,718,0.22739142179489136,0.5298874974250793,-999.9194946289062,0.0642642080783844,0.050520651042461395,0.00499120494350791
934,718,0.22739142179489136,0.5298874974250793,-999.9194946289062,0.0642642080783844,0.050520651042461395,0.00499120494350791
946,718,0.22739142179489136,0.5298874974250793,-999.9194946289062,0.0642642080783844,0.050520651042461395,0.00499120494350791
932,718,0.22739142179489136,0.5298874974250793,-999.9194946289062,0.0642642080783844,0.050520651042461395,0.00499120494350791
887,718,0.22739142179489136,0.5298874974250793,-999.9194946289062,0.0642642080783844,0.050520651042461395,0.00499120494350791
865,718,0.22739142179489136,0.5298874974250793,-999.9194946289062,0.0642642080783844,0.050520651042461395,0.00499120494350791
877,718,0.22739142179489136,0.5298874974250793,-999.9194946289062,0.0642642080783844,0.050520651042461395,0.00499120494350791
863,718,0.22739142179489136,0.5298874974250793,-999.9194946289062,0.0642642080783844,0.050520651042461395,0.00499120494350791
931,719,-0.17050106823444366,-0.2450345754623413,-999.9998168945312,-0.17188574373722076,0.01850120723247528,-0.005083132069557905
901,719,-0.17050106823444366,-0.2450345754623413,-999.9998168945312,-0.17188574373722076,0.01850120723247528,-0.005083132069557905
900,719,-0.17050106823444366,-0.2450345754623413,-999.9998168945312,-0.17188574373722076,0.01850120723247528,-0.005083132069557905
955,719,-0.17050106823444366,-0.2450345754623413,-999.9998168945312,-0.17188574373722076,0.01850120723247528,-0.005083132069557905
862,719,-0.17050106823444366,-0.2450345754623413,-999.9998168945312,-0.17188574373722076,0.01850120723247528,-0.005083132069557905
832,719,-0.17050106823444366,-0.2450345754623413,-999.9998168945312,-0.17188574373722076,0.01850120723247528,-0.005083132069557905
831,719,-0.17050106823444366,-0.2450345754623413,-999.9998168945312,-0.17188574373722076,0.01850120723247528,-0.005083132069557905
886,719,-0.17050106823444366,-0.2450345754623413,-999.9998168945312,-0.17188574373722076,0.01850120723247528,-0.005083132069557905
940,720,-0.016722122207283974,-0.49957549571990967,-1000.1830444335938,0.0134445670992136,0.12056851387023926,-0.12162947654724121
925,720,-0.016722122207283974,-0.49957549571990967,-1000.1830444335938,0.0134445670992136,0.12056851387023926,-0.12162947654724121
922,720,-0.016722122207283974,-0.49957549571990967,-1000.1830444335938,0.0134445670992136,0.12056851387023926,-0.12162947654724121
966,720,-0.016722122207283974,-0.49957549571990967,-1000.1830444335938,0.0134445670992136,0.12056851387023926,-0.12162947654724121
871,720,-0.016722122207283974,-0.49957549571990967,-1000.1830444335938,0.0134445670992136,0.12056851387023926,-0.12162947654724121
856,720,-0.016722122207283974,-0.49957549571990967,-1000.1830444335938,0.0134445670992136,0.12056851387023926,-0.12162947654724121
853,720,-0.016722122207283974,-0.49957549571990967,-1000.1830444335938,0.0134445670992136,0.12056851387023926,-0.12162947654724121
897,720,-0.016722122207283974,-0.49957549571990967,-1000.1830444335938,0.0134445670992136,0.12056851387023926,-0.12162947654724121
951,721,0.06176763400435448,0.1620379537343979,-999.974853515625,0.1953805834054947,-0.017213623970746994,-0.0697752982378006
966,721,0.06176763400435448,0.1620379537343979,-999.974853515625,0.1953805834054947,-0.017213623970746994,-0.0697752982378006
942,721,0.06176763400435448,0.1620379537343979,-999.974853515625,0.1953805834054947,-0.017213623970746994,-0.0697752982378006
950,721,0.06176763400435448,0.1620379537343979,-999.974853515625,0.1953805834054947,-0.017213623970746994,-0.0697752982378006
882,721,0.06176763400435448,0.1620379537343979,-999.974853515625,0.1953805834054947,-0.017213623970746994,-0.0697752982378006
897,721,0.06176763400435448,0.1620379537343979,-999.974853515625,0.1953805834054947,-0.017213623970746994,-0.0697752982378006
873,721,0.06176763400435448,0.1620379537343979,-999.974853515625,0.1953805834054947,-0.017213623970746994,-0.0697752982378006
881,721,0.06176763400435448,0.1620379537343979,-999.974853515625,0.1953805834054947,-0.017213623970746994,-0.0697752982378006
921,722,-0.03845816105604172,0.25629398226737976,-1000.1869506835938,-0.12365444004535675,0.020671067759394646,-0.11433607339859009
938,722,-0.03845816105604172,0.25629398226737976,-1000.1869506835938,-0.12365444004535675,0.020671067759394646,-0.11433607339859009
960,722,-0.03845816105604172,0.25629398226737976,-1000.1869506835938,-0.12365444004535675,0.020671067759394646,-0.11433607339859009
945,722,-0.03845816105604172,0.25629398226737976,-1000.1869506835938,-0.12365444004535675,0.020671067759394646,-0.11433607339859009
852,722,-0.03845816105604172,0.25629398226737976,-1000.1869506835938,-0.12365444004535675,0.020671067759394646,-0.11433607339859009
869,722,-0.03845816105604172,0.25629398226737976,-1000.1869506835938,-0.12365444004535675,0.020671067759394646,-0.11433607339859009
891,722,-0.03845816105604172,0.25629398226737976,-1000.1869506835938,-0.12365444004535675,0.020671067759394646,-0.11433607339859009
876,722,-0.03845816105604172,0.25629398226737976,-1000.1869506835938,-0.12365444004535675,0.020671067759394646,-0.11433607339859009
945,723,0.07628830522298813,-0.4302774667739868,-1000.0031127929688,-0.023028915748000145,-0.029332676902413368,0.12245429307222366
960,723,0.07628830522298813,-0.4302774667739868,-1000.0031127929688,-0.023028915748000145,-0.029332676902413368,0.12245429307222366
944,723,0.07628830522298813,-0.4302774667739868,-1000.0031127929688,-0.023028915748000145,-0.029332676902413368,0.12245429307222366
950,723,0.07628830522298813,-0.4302774667739868,-1000.0031127929688,-0.023028915748000145,-0.029332676902413368,0.12245429307222366
876,723,0.07628830522298813,-0.4302774667739868,-1000.0031127929688,-0.023028915748000145,-0.029332676902413368,0.12245429307222366
891,723,0.07628830522298813,-0.4302774667739868,-1000.0031127929688,-0.023028915748000145,-0.029332676902413368,0.12245429307222366
875,723,0.07628830522298813,-0.4302774667739868,-1000.0031127929688,-0.023028915748000145,-0.029332676902413368,0.12245429307222366
881,723,0.07628830522298813,-0.4302774667739868,-1000.0031127929688,-0.023028915748000145,-0.029332676902413368,0.12245429307222366
947,724,0.31741926074028015,0.37732619047164917,-999.963623046875,0.13522633910179138,-0.002722958568483591,0.034417979419231415
935,724,0.31741926074028015,0.37732619047164917,-999.963623046875,0.13522633910179138,-0.002722958568483591,0.034417979419231415
931,724,0.31741926074028015,0.37732619047164917,-999.963623046875,0.13522633910179138,-0.002722958568483591,0.034417979419231415
955,724,0.31741926074028015,0.37732619047164917,-999.963623046875,0.13522633910179138,-0.002722958568483591,0.034417979419231415
878,724,0.31741926074028015,0.37732619047164917,-999.963623046875,0.13522633910179138,-0.002722958568483591,0.034417979419231415
866,724,0.31741926074028015,0.37732619047164917,-999.963623046875,0.13522633910179138,-0.002722958568483591,0.034417979419231415
862,724,0.31741926074028015,0.37732619047164917,-999.963623046875,0.13522633910179138,-0.002722958568483591,0.034417979419231415
886,724,0.31741926074028015,0.37732619047164917,-999.963623046875,0.13522633910179138,-0.002722958568483591,0.034417979419231415
945,725,-0.2819664180278778,-0.4888612627983093,-1000.0523681640625,0.05633080378174782,-0.101143479347229,-0.018123630434274673
950,725,-0.2819664180278778,-0.4888612627983093,-1000.0523681640625,0.05633080378174782,-0.101143479347229,-0.018123630434274673
942,725,-0.2819664180278778,-0.4888612627983093,-1000.0523681640625,0.05633080378174782,-0.101143479347229,-0.018123630434274673
959,725,-0.2819664180278778,-0.4888612627983093,-1000.0523681640625,0.05633080378174782,-0.101143479347229,-0.018123630434274673
876,725,-0.2819664180278778,-0.4888612627983093,-1000.0523681640625,0.05633080378174782,-0.101143479347229,-0.018123630434274673
881,725,-0.2819664180278778,-0.4888612627983093,-1000.0523681640625,0.05633080378174782,-0.101143479347229,-0.018123630434274673
873,725,-0.2819664180278778,-0.4888612627983093,-1000.0523681640625,0.05633080378174782,-0.101143479347229,-0.018123630434274673
890,725,-0.2819664180278778,-0.4888612627983093,-1000.0523681640625,0.05633080378174782,-0.101143479347229,-0.018123630434274673
923,726,0.1381293088197708,0.6563997268676758,-1000.0624389648438,-0.044295039027929306,-0.03911314904689789,-0.07221724092960358
954,726,0.1381293088197708,0.6563997268676758,-1000.0624389648438,-0.044295039027929306,-0.03911314904689789,-0.07221724092960358
961,726,0.1381293088197708,0.6563997268676758,-1000.0624389648438,-0.044295039027929306,-0.03911314904689789,-0.07221724092960358
944,726,0.1381293088197708,0.6563997268676758,-1000.0624389648438,-0.044295039027929306,-0.03911314904689789,-0.07221724092960358
854,726,0.1381293088197708,0.6563997268676758,-1000.0624389648438,-0.044295039027929306,-0.03911314904689789,-0.07221724092960358
885,726,0.1381293088197708,0.6563997268676758,-1000.0624389648438,-0.044295039027929306,-0.03911314904689789,-0.07221724092960358
892,726,0.1381293088197708,0.6563997268676758,-1000.0624389648438,-0.044295039027929306,-0.03911314904689789,-0.07221724092960358
875,726,0.1381293088197708,0.6563997268676758,-1000.0624389648438,-0.044295039027929306,-0.03911314904689789,-0.07221724092960358
965,727,-0.307725191116333,-0.3226286470890045,-999.992919921875,-0.10462815314531326,0.06890709698200226,-0.11899349093437195
947,727,-0.307725191116333,-0.3226286470890045,-999.992919921875,-0.10462815314531326,0.06890709698200226,-0.11899349093437195
932,727,-0.307725191116333,-0.3226286470890045,-999.992919921875,-0.10462815314531326,0.06890709698200226,-0.11899349093437195
953,727,-0.307725191116333,-0.3226286470890045,-999.992919921875,-0.10462815314531326,0.06890709698200226,-0.11899349093437195
896,727,-0.307725191116333,-0.3226286470890045,-999.992919921875,-0.10462815314531326,0.06890709698200226,-0.11899349093437195
878,727,-0.307725191116333,-0.3226286470890045,-999.992919921875,-0.10462815314531326,0.06890709698200226,-0.11899349093437195
863,727,-0.307725191116333,-0.3226286470890045,-999.992919921875,-0.10462815314531326,0.06890709698200226,-0.11899349093437195
884,727,-0.307725191116333,-0.3226286470890045,-999.992919921875,-0.10462815314531326,0.06890709698200226,-0.11899349093437195
941,728,-0.46987009048461914,0.06312648952007294,-1000.0114135742188,-0.009471166878938675,0.07460033148527145,0.03923695161938667
963,728,-0.46987009048461914,0.06312648952007294,-1000.0114135742188,-0.009471166878938675,0.07460033148527145,0.03923695161938667
948,728,-0.46987009048461914,0.06312648952007294,-1000.0114135742188,-0.009471166878938675,0.07460033148527145,0.03923695161938667
952,728,-0.46987009048461914,0.06312648952007294,-1000.0114135742188,-0.009471166878938675,0.07460033148527145,0.03923695161938667
872,728,-0.46987009048461914,0.06312648952007294,-1000.0114135742188,-0.009471166878938675,0.07460033148527145,0.03923695161938667
894,728,-0.46987009048461914,0.06312648952007294,-1000.0114135742188,-0.009471166878938675,0.07460033148527145,0.03923695161938667
879,728,-0.46987009048461914,0.06312648952007294,-1000.0114135742188,-0.009471166878938675,0.07460033148527145,0.03923695161938667
883,728,-0.46987009048461914,0.06312648952007294,-1000.0114135742188,-0.009471166878938675,0.07460033148527145,0.03923695161938667
964,729,-0.10483985394239426,-0.11344420164823532,-1000.0712890625,-0.3063887059688568,-0.08359749615192413,0.018209759145975113
936,729,-0.10483985394239426,-0.11344420164823532,-1000.0712890625,-0.3063887059688568,-0.08359749615192413,0.018209759145975113
929,729,-0.10483985394239426,-0.11344420164823532,-1000.0712890625,-0.3063887059688568,-0.08359749615192413,0.018209759145975113
943,729,-0.10483985394239426,-0.11344420164823532,-1000.0712890625,-0.3063887059688568,-0.08359749615192413,0.018209759145975113
895,729,-0.10483985394239426,-0.11344420164823532,-1000.0712890625,-0.3063887059688568,-0.08359749615192413,0.018209759145975113
867,729,-0.10483985394239426,-0.11344420164823532,-1000.0712890625,-0.3063887059688568,-0.08359749615192413,0.018209759145975113
860,729,-0.10483985394239426,-0.11344420164823532,-1000.0712890625,-0.3063887059688568,-0.08359749615192413,0.018209759145975113
874,729,-0.10483985394239426,-0.11344420164823532,-1000.0712890625,-0.3063887059688568,-0.08359749615192413,0.018209759145975113
953,730,0.1664232313632965,-0.1490352600812912,-1000.0101928710938,0.16968384385108948,-0.01188681647181511,0.0888298973441124
952,730,0.1664232313632965,-0.1490352600812912,-1000.0101928710938,0.16968384385108948,-0.01188681647181511,0.0888298973441124
943,730,0.1664232313632965,-0.1490352600812912,-1000.0101928710938,0.16968384385108948,-0.01188681647181511,0.0888298973441124
965,730,0.1664232313632965,-0.1490352600812912,-1000.0101928710938,0.16968384385108948,-0.01188681647181511,0.0888298973441124
884,730,0.1664232313632965,-0.1490352600812912,-1000.0101928710938,0.16968384385108948,-0.01188681647181511,0.0888298973441124
883,730,0.1664232313632965,-0.1490352600812912,-1000.0101928710938,0.16968384385108948,-0.01188681647181511,0.0888298973441124
874,730,0.1664232313632965,-0.1490352600812912,-1000.0101928710938,0.16968384385108948,-0.01188681647181511,0.0888298973441124
896,730,0.1664232313632965,-0.1490352600812912,-1000.0101928710938,0.16968384385108948,-0.01188681647181511,0.0888298973441124
953,731,0.04842215031385422,0.3334638178348541,-999.9738159179688,-0.004663124214857817,0.19305318593978882,0.06762886047363281
958,731,0.04842215031385422,0.3334638178348541,-999.9738159179688,-0.004663124214857817,0.19305318593978882,0.06762886047363281
951,731,0.04842215031385422,0.3334638178348541,-999.9738159179688,-0.004663124214857817,0.19305318593978882,0.06762886047363281
950,731,0.04842215031385422,0.3334638178348541,-999.9738159179688,-0.004663124214857817,0.19305318593978882,0.06762886047363281
884,731,0.04842215031385422,0.3334638178348541,-999.9738159179688,-0.004663124214857817,0.19305318593978882,0.06762886047363281
889,731,0.04842215031385422,0.3334638178348541,-999.9738159179688,-0.004663124214857817,0.19305318593978882,0.06762886047363281
882,731,0.04842215031385422,0.3334638178348541,-999.9738159179688,-0.004663124214857817,0.19305318593978882,0.06762886047363281
881,731,0.04842215031385422,0.3334638178348541,-999.9738159179688,-0.004663124214857817,0.19305318593978882,0.06762886047363281
943,732,-0.45836302638053894,-0.27927303314208984,-1000.0125122070312,0.036933787167072296,0.06234228238463402,-0.13320165872573853
952,732,-0.45836302638053894,-0.27927303314208984,-1000.0125122070312,0.036933787167072296,0.06234228238463402,-0.13320165872573853
948,732,-0.45836302638053894,-0.27927303314208984,-1000.0125122070312,0.036933787167072296,0.06234228238463402,-0.13320165872573853
964,732,-0.45836302638053894,-0.27927303314208984,-1000.0125122070312,0.036933787167072296,0.06234228238463402,-0.13320165872573853
874,732,-0.45836302638053894,-0.27927303314208984,-1000.0125122070312,0.036933787167072296,0.06234228238463402,-0.13320165872573853
883,732,-0.45836302638053894,-0.27927303314208984,-1000.0125122070312,0.036933787167072296,0.06234228238463402,-0.13320165872573853
879,732,-0.45836302638053894,-0.27927303314208984,-1000.0125122070312,0.036933787167072296,0.06234228238463402,-0.13320165872573853
895,732,-0.45836302638053894,-0.27927303314208984,-1000.0125122070312,0.036933787167072296,0.06234228238463402,-0.13320165872573853
954,733,-0.11984270066022873,-0.30131998658180237,-999.9921875,-0.09682764858007431,0.0072700888849794865,-0.0019108203705400229
908,733,-0.11984270066022873,-0.30131998658180237,-999.9921875,-0.09682764858007431,0.0072700888849794865,-0.0019108203705400229
907,733,-0.11984270066022873,-0.30131998658180237,-999.9921875,-0.09682764858007431,0.0072700888849794865,-0.0019108203705400229
924,733,-0.11984270066022873,-0.30131998658180237,-999.9921875,-0.09682764858007431,0.0072700888849794865,-0.0019108203705400229
885,733,-0.11984270066022873,-0.30131998658180237,-999.9921875,-0.09682764858007431,0.0072700888849794865,-0.0019108203705400229
839,733,-0.11984270066022873,-0.30131998658180237,-999.9921875,-0.09682764858007431,0.0072700888849794865,-0.0019108203705400229
838,733,-0.11984270066022873,-0.30131998658180237,-999.9921875,-0.09682764858007431,0.0072700888849794865,-0.0019108203705400229
855,733,-0.11984270066022873,-0.30131998658180237,-999.9921875,-0.09682764858007431,0.0072700888849794865,-0.0019108203705400229
956,734,-0.10561446845531464,-0.24305562674999237,-1000.0066528320312,-0.13559892773628235,-0.02423715591430664,0.015335152857005596
899,734,-0.10561446845531464,-0.24305562674999237,-1000.0066528320312,-0.13559892773628235,-0.02423715591430664,0.015335152857005596
914,734,-0.10561446845531464,-0.24305562674999237,-1000.0066528320312,-0.13559892773628235,-0.02423715591430664,0.015335152857005596
934,734,-0.10561446845531464,-0.24305562674999237,-1000.0066528320312,-0.13559892773628235,-0.02423715591430664,0.015335152857005596
887,734,-0.10561446845531464,-0.24305562674999237,-1000.0066528320312,-0.13559892773628235,-0.02423715591430664,0.015335152857005596
830,734,-0.10561446845531464,-0.24305562674999237,-1000.0066528320312,-0.13559892773628235,-0.02423715591430664,0.015335152857005596
845,734,-0.10561446845531464,-0.24305562674999237,-1000.0066528320312,-0.13559892773628235,-0.02423715591430664,0.015335152857005596
865,734,-0.10561446845531464,-0.24305562674999237,-1000.0066528320312,-0.13559892773628235,-0.02423715591430664,0.015335152857005596
933,735,-0.14244289696216583,-0.1558980792760849,-1000.1007080078125,0.12469813972711563,0.08047831803560257,-0.00047375852591358125
957,735,-0.14244289696216583,-0.1558980792760849,-1000.1007080078125,0.12469813972711563,0.08047831803560257,-0.00047375852591358125
946,735,-0.14244289696216583,-0.1558980792760849,-1000.1007080078125,0.12469813972711563,0.08047831803560257,-0.00047375852591358125
934,735,-0.14244289696216583,-0.1558980792760849,-1000.1007080078125,0.12469813972711563,0.08047831803560257,-0.00047375852591358125
864,735,-0.14244289696216583,-0.1558980792760849,-1000.1007080078125,0.12469813972711563,0.08047831803560257,-0.00047375852591358125
888,735,-0.14244289696216583,-0.1558980792760849,-1000.1007080078125,0.12469813972711563,0.08047831803560257,-0.00047375852591358125
877,735,-0.14244289696216583,-0.1558980792760849,-1000.1007080078125,0.12469813972711563,0.08047831803560257,-0.00047375852591358125
865,735,-0.14244289696216583,-0.1558980792760849,-1000.1007080078125,0.12469813972711563,0.08047831803560257,-0.00047375852591358125
957,736,-0.41613128781318665,-0.2621195912361145,-1000.0725708007812,-0.18266624212265015,-0.1999961882829666,0.12487739324569702
940,736,-0.41613128781318665,-0.2621195912361145,-1000.0725708007812,-0.18266624212265015,-0.1999961882829666,0.12487739324569702
966,736,-0.41613128781318665,-0.2621195912361145,-1000.0725708007812,-0.18266624212265015,-0.1999961882829666,0.12487739324569702
951,736,-0.41613128781318665,-0.2621195912361145,-1000.0725708007812,-0.18266624212265015,-0.1999961882829666,0.12487739324569702
888,736,-0.41613128781318665,-0.2621195912361145,-1000.0725708007812,-0.18266624212265015,-0.1999961882829666,0.12487739324569702
871,736,-0.41613128781318665,-0.2621195912361145,-1000.0725708007812,-0.18266624212265015,-0.1999961882829666,0.12487739324569702
897,736,-0.41613128781318665,-0.2621195912361145,-1000.0725708007812,-0.18266624212265015,-0.1999961882829666,0.12487739324569702
882,736,-0.41613128781318665,-0.2621195912361145,-1000.0725708007812,-0.18266624212265015,-0.1999961882829666,0.12487739324569702
959,737,0.2908563017845154,0.837313711643219,-999.7569580078125,0.0550336055457592,0.09457091987133026,0.08490120619535446
920,737,0.2908563017845154,0.837313711643219,-999.7569580078125,0.0550336055457592,0.09457091987133026,0.08490120619535446
921,737,0.2908563017845154,0.837313711643219,-999.7569580078125,0.0550336055457592,0.09457091987133026,0.08490120619535446
945,737,0.2908563017845154,0.837313711643219,-999.7569580078125,0.0550336055457592,0.09457091987133026,0.08490120619535446
890,737,0.2908563017845154,0.837313711643219,-999.7569580078125,0.0550336055457592,0.09457091987133026,0.08490120619535446
851,737,0.2908563017845154,0.837313711643219,-999.7569580078125,0.0550336055457592,0.09457091987133026,0.08490120619535446
852,737,0.2908563017845154,0.837313711643219,-999.7569580078125,0.0550336055457592,0.09457091987133026,0.08490120619535446
876,737,0.2908563017845154,0.837313711643219,-999.7569580078125,0.0550336055457592,0.09457091987133026,0.08490120619535446
960,738,0.20480205118656158,0.5184298753738403,-999.8485717773438,0.11015032976865768,0.001253767404705286,-0.025635309517383575
938,738,0.20480205118656158,0.5184298753738403,-999.8485717773438,0.11015032976865768,0.001253767404705286,-0.025635309517383575
923,738,0.20480205118656158,0.5184298753738403,-999.8485717773438,0.11015032976865768,0.001253767404705286,-0.025635309517383575
944,738,0.20480205118656158,0.5184298753738403,-999.8485717773438,0.11015032976865768,0.001253767404705286,-0.025635309517383575
891,738,0.20480205118656158,0.5184298753738403,-999.8485717773438,0.11015032976865768,0.001253767404705286,-0.025635309517383575
869,738,0.20480205118656158,0.5184298753738403,-999.8485717773438,0.11015032976865768,0.001253767404705286,-0.025635309517383575
854,738,0.20480205118656158,0.5184298753738403,-999.8485717773438,0.11015032976865768,0.001253767404705286,-0.025635309517383575
875,738,0.20480205118656158,0.5184298753738403,-999.8485717773438,0.11015032976865768,0.001253767404705286,-0.025635309517383575
962,739,0.15980862081050873,-0.1690603792667389,-1000.008056640625,-0.010980873368680477,-0.10409218072891235,0.01267246250063181
937,739,0.15980862081050873,-0.1690603792667389,-1000.008056640625,-0.010980873368680477,-0.10409218072891235,0.01267246250063181
926,739,0.15980862081050873,-0.1690603792667389,-1000.008056640625,-0.010980873368680477,-0.10409218072891235,0.01267246250063181
941,739,0.15980862081050873,-0.1690603792667389,-1000.008056640625,-0.010980873368680477,-0.10409218072891235,0.01267246250063181
893,739,0.15980862081050873,-0.1690603792667389,-1000.008056640625,-0.010980873368680477,-0.10409218072891235,0.01267246250063181
868,739,0.15980862081050873,-0.1690603792667389,-1000.008056640625,-0.010980873368680477,-0.10409218072891235,0.01267246250063181
857,739,0.15980862081050873,-0.1690603792667389,-1000.008056640625,-0.010980873368680477,-0.10409218072891235,0.01267246250063181
872,739,0.15980862081050873,-0.1690603792667389,-1000.008056640625,-0.010980873368680477,-0.10409218072891235,0.01267246250063181
963,740,0.2722185254096985,-0.16072450578212738,-1000.0662231445312,-0.10712353140115738,-0.1276101917028427,0.015821384266018867
927,740,0.2722185254096985,-0.16072450578212738,-1000.0662231445312,-0.10712353140115738,-0.1276101917028427,0.015821384266018867
928,740,0.2722185254096985,-0.16072450578212738,-1000.0662231445312,-0.10712353140115738,-0.1276101917028427,0.015821384266018867
948,740,0.2722185254096985,-0.16072450578212738,-1000.0662231445312,-0.10712353140115738,-0.1276101917028427,0.015821384266018867
894,740,0.2722185254096985,-0.16072450578212738,-1000.0662231445312,-0.10712353140115738,-0.1276101917028427,0.015821384266018867
858,740,0.2722185254096985,-0.16072450578212738,-1000.0662231445312,-0.10712353140115738,-0.1276101917028427,0.015821384266018867
859,740,0.2722185254096985,-0.16072450578212738,-1000.0662231445312,-0.10712353140115738,-0.1276101917028427,0.015821384266018867
879,740,0.2722185254096985,-0.16072450578212738,-1000.0662231445312,-0.10712353140115738,-0.1276101917028427,0.015821384266018867
965,741,-0.2495734691619873,-0.007692981511354446,-1000.0537109375,-0.11618556827306747,-0.035668373107910156,0.046502623707056046
930,741,-0.2495734691619873,-0.007692981511354446,-1000.0537109375,-0.11618556827306747,-0.035668373107910156,0.046502623707056046
935,741,-0.2495734691619873,-0.007692981511354446,-1000.0537109375,-0.11618556827306747,-0.035668373107910156,0.046502623707056046
947,741,-0.2495734691619873,-0.007692981511354446,-1000.0537109375,-0.11618556827306747,-0.035668373107910156,0.046502623707056046
896,741,-0.2495734691619873,-0.007692981511354446,-1000.0537109375,-0.11618556827306747,-0.035668373107910156,0.046502623707056046
861,741,-0.2495734691619873,-0.007692981511354446,-1000.0537109375,-0.11618556827306747,-0.035668373107910156,0.046502623707056046
866,741,-0.2495734691619873,-0.007692981511354446,-1000.0537109375,-0.11618556827306747,-0.035668373107910156,0.046502623707056046
878,741,-0.2495734691619873,-0.007692981511354446,-1000.0537109375,-0.11618556827306747,-0.035668373107910156,0.046502623707056046
990,742,0.07015234231948853,0.4040094017982483,-999.995361328125,0.018875904381275177,0.014657532796263695,0.006945403758436441
979,742,0.07015234231948853,0.4040094017982483,-999.995361328125,0.018875904381275177,0.014657532796263695,0.006945403758436441
978,742,0.07015234231948853,0.4040094017982483,-999.995361328125,0.018875904381275177,0.014657532796263695,0.006945403758436441
1007,742,0.07015234231948853,0.4040094017982483,-999.995361328125,0.018875904381275177,0.014657532796263695,0.006945403758436441
921,742,0.07015234231948853,0.4040094017982483,-999.995361328125,0.018875904381275177,0.014657532796263695,0.006945403758436441
910,742,0.07015234231948853,0.4040094017982483,-999.995361328125,0.018875904381275177,0.014657532796263695,0.006945403758436441
909,742,0.07015234231948853,0.4040094017982483,-999.995361328125,0.018875904381275177,0.014657532796263695,0.006945403758436441
938,742,0.07015234231948853,0.4040094017982483,-999.995361328125,0.018875904381275177,0.014657532796263695,0.006945403758436441
1007,743,0.13180530071258545,0.4361405670642853,-1000.00927734375,-0.044866323471069336,-0.0035540282260626554,-0.03635207936167717
978,743,0.13180530071258545,0.4361405670642853,-1000.00927734375,-0.044866323471069336,-0.0035540282260626554,-0.03635207936167717
987,743,0.13180530071258545,0.4361405670642853,-1000.00927734375,-0.044866323471069336,-0.0035540282260626554,-0.03635207936167717
992,743,0.13180530071258545,0.4361405670642853,-1000.00927734375,-0.044866323471069336,-0.0035540282260626554,-0.03635207936167717
938,743,0.13180530071258545,0.4361405670642853,-1000.00927734375,-0.044866323471069336,-0.0035540282260626554,-0.03635207936167717
909,743,0.13180530071258545,0.4361405670642853,-1000.00927734375,-0.044866323471069336,-0.0035540282260626554,-0.03635207936167717
918,743,0.13180530071258545,0.4361405670642853,-1000.00927734375,-0.044866323471069336,-0.0035540282260626554,-0.03635207936167717
923,743,0.13180530071258545,0.4361405670642853,-1000.00927734375,-0.044866323471069336,-0.0035540282260626554,-0.03635207936167717
988,744,0.07292541861534119,0.04153698310256004,-999.998779296875,-0.04637356474995613,0.01743480935692787,-0.014909426681697369
1008,744,0.07292541861534119,0.04153698310256004,-999.998779296875,-0.04637356474995613,0.01743480935692787,-0.014909426681697369
991,744,0.07292541861534119,0.04153698310256004,-999.998779296875,-0.04637356474995613,0.01743480935692787,-0.014909426681697369
981,744,0.07292541861534119,0.04153698310256004,-999.998779296875,-0.04637356474995613,0.01743480935692787,-0.014909426681697369
919,744,0.07292541861534119,0.04153698310256004,-999.998779296875,-0.04637356474995613,0.01743480935692787,-0.014909426681697369
939,744,0.07292541861534119,0.04153698310256004,-999.998779296875,-0.04637356474995613,0.01743480935692787,-0.014909426681697369
922,744,0.07292541861534119,0.04153698310256004,-999.998779296875,-0.04637356474995613,0.01743480935692787,-0.014909426681697369
912,744,0.07292541861534119,0.04153698310256004,-999.998779296875,-0.04637356474995613,0.01743480935692787,-0.014909426681697369
979,745,0.14453071355819702,0.44945552945137024,-999.98876953125,-0.09303651750087738,0.017507998272776604,-0.02164582908153534
990,745,0.14453071355819702,0.44945552945137024,-999.98876953125,-0.09303651750087738,0.017507998272776604,-0.02164582908153534
989,745,0.14453071355819702,0.44945552945137024,-999.98876953125,-0.09303651750087738,0.017507998272776604,-0.02164582908153534
980,745,0.14453071355819702,0.44945552945137024,-999.98876953125,-0.09303651750087738,0.017507998272776604,-0.02164582908153534
910,745,0.14453071355819702,0.44945552945137024,-999.98876953125,-0.09303651750087738,0.017507998272776604,-0.02164582908153534
921,745,0.14453071355819702,0.44945552945137024,-999.98876953125,-0.09303651750087738,0.017507998272776604,-0.02164582908153534
920,745,0.14453071355819702,0.44945552945137024,-999.98876953125,-0.09303651750087738,0.017507998272776604,-0.02164582908153534
911,745,0.14453071355819702,0.44945552945137024,-999.98876953125,-0.09303651750087738,0.017507998272776604,-0.02164582908153534
1018,746,0.12700901925563812,0.08388084918260574,-999.9950561523438,0.08772365003824234,-0.029262159019708633,-0.0908065214753151
1031,746,0.12700901925563812,0.08388084918260574,-999.9950561523438,0.08772365003824234,-0.029262159019708633,-0.0908065214753151
1010,746,0.12700901925563812,0.08388084918260574,-999.9950561523438,0.08772365003824234,-0.029262159019708633,-0.0908065214753151
1021,746,0.12700901925563812,0.08388084918260574,-999.9950561523438,0.08772365003824234,-0.029262159019708633,-0.0908065214753151
949,746,0.12700901925563812,0.08388084918260574,-999.9950561523438,0.08772365003824234,-0.029262159019708633,-0.0908065214753151
962,746,0.12700901925563812,0.08388084918260574,-999.9950561523438,0.08772365003824234,-0.029262159019708633,-0.0908065214753151
941,746,0.12700901925563812,0.08388084918260574,-999.9950561523438,0.08772365003824234,-0.029262159019708633,-0.0908065214753151
952,746,0.12700901925563812,0.08388084918260574,-999.9950561523438,0.08772365003824234,-0.029262159019708633,-0.0908065214753151
1034,747,-0.506268322467804,-0.5847707986831665,-1000.0792236328125,-0.008191690780222416,-0.004958824720233679,0.030576976016163826
1012,747,-0.506268322467804,-0.5847707986831665,-1000.0792236328125,-0.008191690780222416,-0.004958824720233679,0.030576976016163826
998,747,-0.506268322467804,-0.5847707986831665,-1000.0792236328125,-0.008191690780222416,-0.004958824720233679,0.030576976016163826
999,747,-0.506268322467804,-0.5847707986831665,-1000.0792236328125,-0.008191690780222416,-0.004958824720233679,0.030576976016163826
965,747,-0.506268322467804,-0.5847707986831665,-1000.0792236328125,-0.008191690780222416,-0.004958824720233679,0.030576976016163826
943,747,-0.506268322467804,-0.5847707986831665,-1000.0792236328125,-0.008191690780222416,-0.004958824720233679,0.030576976016163826
929,747,-0.506268322467804,-0.5847707986831665,-1000.0792236328125,-0.008191690780222416,-0.004958824720233679,0.030576976016163826
930,747,-0.506268322467804,-0.5847707986831665,-1000.0792236328125,-0.008191690780222416,-0.004958824720233679,0.030576976016163826
1022,748,-0.22487471997737885,-0.328750342130661,-1000.0350952148438,0.08701757341623306,0.0924719050526619,0.0730578824877739
1019,748,-0.22487471997737885,-0.328750342130661,-1000.0350952148438,0.08701757341623306,0.0924719050526619,0.0730578824877739
1018,748,-0.22487471997737885,-0.328750342130661,-1000.0350952148438,0.08701757341623306,0.0924719050526619,0.0730578824877739
1021,748,-0.22487471997737885,-0.328750342130661,-1000.0350952148438,0.08701757341623306,0.0924719050526619,0.0730578824877739
953,748,-0.22487471997737885,-0.328750342130661,-1000.0350952148438,0.08701757341623306,0.0924719050526619,0.0730578824877739
950,748,-0.22487471997737885,-0.328750342130661,-1000.0350952148438,0.08701757341623306,0.0924719050526619,0.0730578824877739
949,748,-0.22487471997737885,-0.328750342130661,-1000.0350952148438,0.08701757341623306,0.0924719050526619,0.0730578824877739
952,748,-0.22487471997737885,-0.328750342130661,-1000.0350952148438,0.08701757341623306,0.0924719050526619,0.0730578824877739
1013,749,0.3512577414512634,0.6207587718963623,-999.9365844726562,0.06601868569850922,-0.08744219690561295,-0.05189085751771927
1030,749,0.3512577414512634,0.6207587718963623,-999.9365844726562,0.06601868569850922,-0.08744219690561295,-0.05189085751771927
1018,749,0.3512577414512634,0.6207587718963623,-999.9365844726562,0.06601868569850922,-0.08744219690561295,-0.05189085751771927
1019,749,0.3512577414512634,0.6207587718963623,-999.9365844726562,0.06601868569850922,-0.08744219690561295,-0.05189085751771927
944,749,0.3512577414512634,0.6207587718963623,-999.9365844726562,0.06601868569850922,-0.08744219690561295,-0.05189085751771927
961,749,0.3512577414512634,0.6207587718963623,-999.9365844726562,0.06601868569850922,-0.08744219690561295,-0.05189085751771927
949,749,0.3512577414512634,0.6207587718963623,-999.9365844726562,0.06601868569850922,-0.08744219690561295,-0.05189085751771927
950,749,0.3512577414512634,0.6207587718963623,-999.9365844726562,0.06601868569850922,-0.08744219690561295,-0.05189085751771927
993,750,-0.1530337780714035,-0.18319560587406158,-999.95751953125,-0.07691007107496262,-0.07702139019966125,0.08652973920106888
1006,750,-0.1530337780714035,-0.18319560587406158,-999.95751953125,-0.07691007107496262,-0.07702139019966125,0.08652973920106888
1031,750,-0.1530337780714035,-0.18319560587406158,-999.95751953125,-0.07691007107496262,-0.07702139019966125,0.08652973920106888
1018,750,-0.1530337780714035,-0.18319560587406158,-999.95751953125,-0.07691007107496262,-0.07702139019966125,0.08652973920106888
924,750,-0.1530337780714035,-0.18319560587406158,-999.95751953125,-0.07691007107496262,-0.07702139019966125,0.08652973920106888
937,750,-0.1530337780714035,-0.18319560587406158,-999.95751953125,-0.07691007107496262,-0.07702139019966125,0.08652973920106888
962,750,-0.1530337780714035,-0.18319560587406158,-999.95751953125,-0.07691007107496262,-0.07702139019966125,0.08652973920106888
949,750,-0.1530337780714035,-0.18319560587406158,-999.95751953125,-0.07691007107496262,-0.07702139019966125,0.08652973920106888
1033,751,-0.7580814361572266,-0.376382440328598,-1000.0936279296875,-0.18476592004299164,-0.05126319080591202,-0.07464563101530075
1017,751,-0.7580814361572266,-0.376382440328598,-1000.0936279296875,-0.18476592004299164,-0.05126319080591202,-0.07464563101530075
997,751,-0.7580814361572266,-0.376382440328598,-1000.0936279296875,-0.18476592004299164,-0.05126319080591202,-0.07464563101530075
1005,751,-0.7580814361572266,-0.376382440328598,-1000.0936279296875,-0.18476592004299164,-0.05126319080591202,-0.07464563101530075
964,751,-0.7580814361572266,-0.376382440328598,-1000.0936279296875,-0.18476592004299164,-0.05126319080591202,-0.07464563101530075
948,751,-0.7580814361572266,-0.376382440328598,-1000.0936279296875,-0.18476592004299164,-0.05126319080591202,-0.07464563101530075
928,751,-0.7580814361572266,-0.376382440328598,-1000.0936279296875,-0.18476592004299164,-0.05126319080591202,-0.07464563101530075
936,751,-0.7580814361572266,-0.376382440328598,-1000.0936279296875,-0.18476592004299164,-0.05126319080591202,-0.07464563101530075
1027,752,0.21693189442157745,0.36355167627334595,-999.8928833007812,0.09107427299022675,0.24092404544353485,-0.1310987025499344
1022,752,0.21693189442157745,0.36355167627334595,-999.8928833007812,0.09107427299022675,0.24092404544353485,-0.1310987025499344
1001,752,0.21693189442157745,0.36355167627334595,-999.8928833007812,0.09107427299022675,0.24092404544353485,-0.1310987025499344
1015,752,0.21693189442157745,0.36355167627334595,-999.8928833007812,0.09107427299022675,0.24092404544353485,-0.1310987025499344
958,752,0.21693189442157745,0.36355167627334595,-999.8928833007812,0.09107427299022675,0.24092404544353485,-0.1310987025499344
953,752,0.21693189442157745,0.36355167627334595,-999.8928833007812,0.09107427299022675,0.24092404544353485,-0.1310987025499344
932,752,0.21693189442157745,0.36355167627334595,-999.8928833007812,0.09107427299022675,0.24092404544353485,-0.1310987025499344
946,752,0.21693189442157745,0.36355167627334595,-999.8928833007812,0.09107427299022675,0.24092404544353485,-0.1310987025499344
1001,753,-0.3705480396747589,-0.2049722969532013,-999.9915771484375,-0.2418544590473175,0.0048238737508654594,-0.023583272472023964
1016,753,-0.3705480396747589,-0.2049722969532013,-999.9915771484375,-0.2418544590473175,0.0048238737508654594,-0.023583272472023964
1024,753,-0.3705480396747589,-0.2049722969532013,-999.9915771484375,-0.2418544590473175,0.0048238737508654594,-0.023583272472023964
1025,753,-0.3705480396747589,-0.2049722969532013,-999.9915771484375,-0.2418544590473175,0.0048238737508654594,-0.023583272472023964
932,753,-0.3705480396747589,-0.2049722969532013,-999.9915771484375,-0.2418544590473175,0.0048238737508654594,-0.023583272472023964
947,753,-0.3705480396747589,-0.2049722969532013,-999.9915771484375,-0.2418544590473175,0.0048238737508654594,-0.023583272472023964
955,753,-0.3705480396747589,-0.2049722969532013,-999.9915771484375,-0.2418544590473175,0.0048238737508654594,-0.023583272472023964
956,753,-0.3705480396747589,-0.2049722969532013,-999.9915771484375,-0.2418544590473175,0.0048238737508654594,-0.023583272472023964
1008,754,-0.011744608171284199,0.0760117918252945,-999.7654418945312,0.32460692524909973,-0.002184085315093398,0.11430765688419342
989,754,-0.011744608171284199,0.0760117918252945,-999.7654418945312,0.32460692524909973,-0.002184085315093398,0.11430765688419342
1028,754,-0.011744608171284199,0.0760117918252945,-999.7654418945312,0.32460692524909973,-0.002184085315093398,0.11430765688419342
1011,754,-0.011744608171284199,0.0760117918252945,-999.7654418945312,0.32460692524909973,-0.002184085315093398,0.11430765688419342
939,754,-0.011744608171284199,0.0760117918252945,-999.7654418945312,0.32460692524909973,-0.002184085315093398,0.11430765688419342
920,754,-0.011744608171284199,0.0760117918252945,-999.7654418945312,0.32460692524909973,-0.002184085315093398,0.11430765688419342
959,754,-0.011744608171284199,0.0760117918252945,-999.7654418945312,0.32460692524909973,-0.002184085315093398,0.11430765688419342
942,754,-0.011744608171284199,0.0760117918252945,-999.7654418945312,0.32460692524909973,-0.002184085315093398,0.11430765688419342
1035,755,-0.3105475604534149,-0.5550240278244019,-1000.2013549804688,0.038977980613708496,-0.04501938074827194,-0.11682028323411942
991,755,-0.3105475604534149,-0.5550240278244019,-1000.2013549804688,0.038977980613708496,-0.04501938074827194,-0.11682028323411942
1008,755,-0.3105475604534149,-0.5550240278244019,-1000.2013549804688,0.038977980613708496,-0.04501938074827194,-0.11682028323411942
1011,755,-0.3105475604534149,-0.5550240278244019,-1000.2013549804688,0.038977980613708496,-0.04501938074827194,-0.11682028323411942
966,755,-0.3105475604534149,-0.5550240278244019,-1000.2013549804688,0.038977980613708496,-0.04501938074827194,-0.11682028323411942
922,755,-0.3105475604534149,-0.5550240278244019,-1000.2013549804688,0.038977980613708496,-0.04501938074827194,-0.11682028323411942
939,755,-0.3105475604534149,-0.5550240278244019,-1000.2013549804688,0.038977980613708496,-0.04501938074827194,-0.11682028323411942
942,755,-0.3105475604534149,-0.5550240278244019,-1000.2013549804688,0.038977980613708496,-0.04501938074827194,-0.11682028323411942
995,756,-0.36861687898635864,-0.2633652985095978,-1000.0552368164062,-0.047754500061273575,-0.1025959700345993,0.07094191014766693
996,756,-0.36861687898635864,-0.2633652985095978,-1000.0552368164062,-0.047754500061273575,-0.1025959700345993,0.07094191014766693
1032,756,-0.36861687898635864,-0.2633652985095978,-1000.0552368164062,-0.047754500061273575,-0.1025959700345993,0.07094191014766693
1010,756,-0.36861687898635864,-0.2633652985095978,-1000.0552368164062,-0.047754500061273575,-0.1025959700345993,0.07094191014766693
926,756,-0.36861687898635864,-0.2633652985095978,-1000.0552368164062,-0.047754500061273575,-0.1025959700345993,0.07094191014766693
927,756,-0.36861687898635864,-0.2633652985095978,-1000.0552368164062,-0.047754500061273575,-0.1025959700345993,0.07094191014766693
963,756,-0.36861687898635864,-0.2633652985095978,-1000.0552368164062,-0.047754500061273575,-0.1025959700345993,0.07094191014766693
941,756,-0.36861687898635864,-0.2633652985095978,-1000.0552368164062,-0.047754500061273575,-0.1025959700345993,0.07094191014766693
980,757,0.17719817161560059,0.4021468460559845,-999.9971923828125,-0.18155673146247864,0.002657055389136076,0.021602777764201164
989,757,0.17719817161560059,0.4021468460559845,-999.9971923828125,-0.18155673146247864,0.002657055389136076,0.021602777764201164
1008,757,0.17719817161560059,0.4021468460559845,-999.9971923828125,-0.18155673146247864,0.002657055389136076,0.021602777764201164
988,757,0.17719817161560059,0.4021468460559845,-999.9971923828125,-0.18155673146247864,0.002657055389136076,0.021602777764201164
911,757,0.17719817161560059,0.4021468460559845,-999.9971923828125,-0.18155673146247864,0.002657055389136076,0.021602777764201164
920,757,0.17719817161560059,0.4021468460559845,-999.9971923828125,-0.18155673146247864,0.002657055389136076,0.021602777764201164
939,757,0.17719817161560059,0.4021468460559845,-999.9971923828125,-0.18155673146247864,0.002657055389136076,0.021602777764201164
919,757,0.17719817161560059,0.4021468460559845,-999.9971923828125,-0.18155673146247864,0.002657055389136076,0.021602777764201164
977,758,0.1776200234889984,0.6009986996650696,-999.9776611328125,0.051559992134571075,-0.006986886728554964,-0.006203301716595888
1023,758,0.1776200234889984,0.6009986996650696,-999.9776611328125,0.051559992134571075,-0.006986886728554964,-0.006203301716595888
992,758,0.1776200234889984,0.6009986996650696,-999.9776611328125,0.051559992134571075,-0.006986886728554964,-0.006203301716595888
987,758,0.1776200234889984,0.6009986996650696,-999.9776611328125,0.051559992134571075,-0.006986886728554964,-0.006203301716595888
908,758,0.1776200234889984,0.6009986996650696,-999.9776611328125,0.051559992134571075,-0.006986886728554964,-0.006203301716595888
954,758,0.1776200234889984,0.6009986996650696,-999.9776611328125,0.051559992134571075,-0.006986886728554964,-0.006203301716595888
923,758,0.1776200234889984,0.6009986996650696,-999.9776611328125,0.051559992134571075,-0.006986886728554964,-0.006203301716595888
918,758,0.1776200234889984,0.6009986996650696,-999.9776611328125,0.051559992134571075,-0.006986886728554964,-0.006203301716595888
993,759,0.20363807678222656,0.024479113519191742,-999.9901733398438,0.06275979429483414,0.010779350996017456,-0.01918758451938629
976,759,0.20363807678222656,0.024479113519191742,-999.9901733398438,0.06275979429483414,0.010779350996017456,-0.01918758451938629
986,759,0.20363807678222656,0.024479113519191742,-999.9901733398438,0.06275979429483414,0.010779350996017456,-0.01918758451938629
1006,759,0.20363807678222656,0.024479113519191742,-999.9901733398438,0.06275979429483414,0.010779350996017456,-0.01918758451938629
924,759,0.20363807678222656,0.024479113519191742,-999.9901733398438,0.06275979429483414,0.010779350996017456,-0.01918758451938629
907,759,0.20363807678222656,0.024479113519191742,-999.9901733398438,0.06275979429483414,0.010779350996017456,-0.01918758451938629
917,759,0.20363807678222656,0.024479113519191742,-999.9901733398438,0.06275979429483414,0.010779350996017456,-0.01918758451938629
937,759,0.20363807678222656,0.024479113519191742,-999.9901733398438,0.06275979429483414,0.010779350996017456,-0.01918758451938629
994,760,0.16237065196037292,0.04494928941130638,-1000.0121459960938,0.008228017017245293,0.015965845435857773,0.007542639039456844
982,760,0.16237065196037292,0.04494928941130638,-1000.0121459960938,0.008228017017245293,0.015965845435857773,0.007542639039456844
981,760,0.16237065196037292,0.04494928941130638,-1000.0121459960938,0.008228017017245293,0.015965845435857773,0.007542639039456844
991,760,0.16237065196037292,0.04494928941130638,-1000.0121459960938,0.008228017017245293,0.015965845435857773,0.007542639039456844
925,760,0.16237065196037292,0.04494928941130638,-1000.0121459960938,0.008228017017245293,0.015965845435857773,0.007542639039456844
913,760,0.16237065196037292,0.04494928941130638,-1000.0121459960938,0.008228017017245293,0.015965845435857773,0.007542639039456844
912,760,0.16237065196037292,0.04494928941130638,-1000.0121459960938,0.008228017017245293,0.015965845435857773,0.007542639039456844
922,760,0.16237065196037292,0.04494928941130638,-1000.0121459960938,0.008228017017245293,0.015965845435857773,0.007542639039456844
1006,761,0.11137191206216812,-0.015989694744348526,-1000.018798828125,-0.02219342440366745,-0.017019452527165413,0.013227872550487518
986,761,0.11137191206216812,-0.015989694744348526,-1000.018798828125,-0.02219342440366745,-0.017019452527165413,0.013227872550487518
975,761,0.11137191206216812,-0.015989694744348526,-1000.018798828125,-0.02219342440366745,-0.017019452527165413,0.013227872550487518
995,761,0.11137191206216812,-0.015989694744348526,-1000.018798828125,-0.02219342440366745,-0.017019452527165413,0.013227872550487518
937,761,0.11137191206216812,-0.015989694744348526,-1000.018798828125,-0.02219342440366745,-0.017019452527165413,0.013227872550487518
917,761,0.11137191206216812,-0.015989694744348526,-1000.018798828125,-0.02219342440366745,-0.017019452527165413,0.013227872550487518
906,761,0.11137191206216812,-0.015989694744348526,-1000.018798828125,-0.02219342440366745,-0.017019452527165413,0.013227872550487518
926,761,0.11137191206216812,-0.015989694744348526,-1000.018798828125,-0.02219342440366745,-0.017019452527165413,0.013227872550487518
1030,762,-0.1936883181333542,-0.2196892648935318,-1000.0819091796875,-0.22696375846862793,0.0457499623298645,-0.0344649963080883
1023,762,-0.1936883181333542,-0.2196892648935318,-1000.0819091796875,-0.22696375846862793,0.0457499623298645,-0.0344649963080883
993,762,-0.1936883181333542,-0.2196892648935318,-1000.0819091796875,-0.22696375846862793,0.0457499623298645,-0.0344649963080883
1018,762,-0.1936883181333542,-0.2196892648935318,-1000.0819091796875,-0.22696375846862793,0.0457499623298645,-0.0344649963080883
961,762,-0.1936883181333542,-0.2196892648935318,-1000.0819091796875,-0.22696375846862793,0.0457499623298645,-0.0344649963080883
954,762,-0.1936883181333542,-0.2196892648935318,-1000.0819091796875,-0.22696375846862793,0.0457499623298645,-0.0344649963080883
924,762,-0.1936883181333542,-0.2196892648935318,-1000.0819091796875,-0.22696375846862793,0.0457499623298645,-0.0344649963080883
949,762,-0.1936883181333542,-0.2196892648935318,-1000.0819091796875,-0.22696375846862793,0.0457499623298645,-0.0344649963080883
995,763,0.17697715759277344,-9.647721890360117e-05,-999.9802856445312,-0.05918581038713455,0.004426461644470692,-0.027757903560996056
975,763,0.17697715759277344,-9.647721890360117e-05,-999.9802856445312,-0.05918581038713455,0.004426461644470692,-0.027757903560996056
974,763,0.17697715759277344,-9.647721890360117e-05,-999.9802856445312,-0.05918581038713455,0.004426461644470692,-0.027757903560996056
996,763,0.17697715759277344,-9.647721890360117e-05,-999.9802856445312,-0.05918581038713455,0.004426461644470692,-0.027757903560996056
926,763,0.17697715759277344,-9.647721890360117e-05,-999.9802856445312,-0.05918581038713455,0.004426461644470692,-0.027757903560996056
906,763,0.17697715759277344,-9.647721890360117e-05,-999.9802856445312,-0.05918581038713455,0.004426461644470692,-0.027757903560996056
905,763,0.17697715759277344,-9.647721890360117e-05,-999.9802856445312,-0.05918581038713455,0.004426461644470692,-0.027757903560996056
927,763,0.17697715759277344,-9.647721890360117e-05,-999.9802856445312,-0.05918581038713455,0.004426461644470692,-0.027757903560996056
996,764,0.3099128007888794,0.0967554971575737,-1000.0221557617188,0.037897758185863495,-0.009351260028779507,0.024159861728549004
974,764,0.3099128007888794,0.0967554971575737,-1000.0221557617188,0.037897758185863495,-0.009351260028779507,0.024159861728549004
973,764,0.3099128007888794,0.0967554971575737,-1000.0221557617188,0.037897758185863495,-0.009351260028779507,0.024159861728549004
997,764,0.3099128007888794,0.0967554971575737,-1000.0221557617188,0.037897758185863495,-0.009351260028779507,0.024159861728549004
927,764,0.3099128007888794,0.0967554971575737,-1000.0221557617188,0.037897758185863495,-0.009351260028779507,0.024159861728549004
905,764,0.3099128007888794,0.0967554971575737,-1000.0221557617188,0.037897758185863495,-0.009351260028779507,0.024159861728549004
904,764,0.3099128007888794,0.0967554971575737,-1000.0221557617188,0.037897758185863495,-0.009351260028779507,0.024159861728549004
928,764,0.3099128007888794,0.0967554971575737,-1000.0221557617188,0.037897758185863495,-0.009351260028779507,0.024159861728549004
1027,765,-0.12548521161079407,0.29869067668914795,-1000.0770874023438,0.0753369927406311,-0.01914099231362343,0.18615418672561646
1015,765,-0.12548521161079407,0.29869067668914795,-1000.0770874023438,0.0753369927406311,-0.01914099231362343,0.18615418672561646
1026,765,-0.12548521161079407,0.29869067668914795,-1000.0770874023438,0.0753369927406311,-0.01914099231362343,0.18615418672561646
1020,765,-0.12548521161079407,0.29869067668914795,-1000.0770874023438,0.0753369927406311,-0.01914099231362343,0.18615418672561646
958,765,-0.12548521161079407,0.29869067668914795,-1000.0770874023438,0.0753369927406311,-0.01914099231362343,0.18615418672561646
946,765,-0.12548521161079407,0.29869067668914795,-1000.0770874023438,0.0753369927406311,-0.01914099231362343,0.18615418672561646
957,765,-0.12548521161079407,0.29869067668914795,-1000.0770874023438,0.0753369927406311,-0.01914099231362343,0.18615418672561646
951,765,-0.12548521161079407,0.29869067668914795,-1000.0770874023438,0.0753369927406311,-0.01914099231362343,0.18615418672561646
982,766,0.18502399325370789,0.0765823945403099,-999.9913940429688,0.12515060603618622,0.012224924750626087,-0.025421326979994774
994,766,0.18502399325370789,0.0765823945403099,-999.9913940429688,0.12515060603618622,0.012224924750626087,-0.025421326979994774
1002,766,0.18502399325370789,0.0765823945403099,-999.9913940429688,0.12515060603618622,0.012224924750626087,-0.025421326979994774
967,766,0.18502399325370789,0.0765823945403099,-999.9913940429688,0.12515060603618622,0.012224924750626087,-0.025421326979994774
913,766,0.18502399325370789,0.0765823945403099,-999.9913940429688,0.12515060603618622,0.012224924750626087,-0.025421326979994774
925,766,0.18502399325370789,0.0765823945403099,-999.9913940429688,0.12515060603618622,0.012224924750626087,-0.025421326979994774
933,766,0.18502399325370789,0.0765823945403099,-999.9913940429688,0.12515060603618622,0.012224924750626087,-0.025421326979994774
898,766,0.18502399325370789,0.0765823945403099,-999.9913940429688,0.12515060603618622,0.012224924750626087,-0.025421326979994774
997,767,0.24104709923267365,-0.021134618669748306,-999.9794921875,0.005548826418817043,-0.006565850228071213,-0.001793130999431014
973,767,0.24104709923267365,-0.021134618669748306,-999.9794921875,0.005548826418817043,-0.006565850228071213,-0.001793130999431014
985,767,0.24104709923267365,-0.021134618669748306,-999.9794921875,0.005548826418817043,-0.006565850228071213,-0.001793130999431014
1005,767,0.24104709923267365,-0.021134618669748306,-999.9794921875,0.005548826418817043,-0.006565850228071213,-0.001793130999431014
928,767,0.24104709923267365,-0.021134618669748306,-999.9794921875,0.005548826418817043,-0.006565850228071213,-0.001793130999431014
904,767,0.24104709923267365,-0.021134618669748306,-999.9794921875,0.005548826418817043,-0.006565850228071213,-0.001793130999431014
916,767,0.24104709923267365,-0.021134618669748306,-999.9794921875,0.005548826418817043,-0.006565850228071213,-0.001793130999431014
936,767,0.24104709923267365,-0.021134618669748306,-999.9794921875,0.005548826418817043,-0.006565850228071213,-0.001793130999431014
1005,768,0.2839641571044922,0.1258908212184906,-1000.0232543945312,-0.10605266690254211,-0.007606795523315668,0.01844029873609543
985,768,0.2839641571044922,0.1258908212184906,-1000.0232543945312,-0.10605266690254211,-0.007606795523315668,0.01844029873609543
972,768,0.2839641571044922,0.1258908212184906,-1000.0232543945312,-0.10605266690254211,-0.007606795523315668,0.01844029873609543
998,768,0.2839641571044922,0.1258908212184906,-1000.0232543945312,-0.10605266690254211,-0.007606795523315668,0.01844029873609543
936,768,0.2839641571044922,0.1258908212184906,-1000.0232543945312,-0.10605266690254211,-0.007606795523315668,0.01844029873609543
916,768,0.2839641571044922,0.1258908212184906,-1000.0232543945312,-0.10605266690254211,-0.007606795523315668,0.01844029873609543
903,768,0.2839641571044922,0.1258908212184906,-1000.0232543945312,-0.10605266690254211,-0.007606795523315668,0.01844029873609543
929,768,0.2839641571044922,0.1258908212184906,-1000.0232543945312,-0.10605266690254211,-0.007606795523315668,0.01844029873609543
998,769,0.16925019025802612,0.29444852471351624,-999.97412109375,-0.11636398732662201,-0.001580441021360457,-0.02188030071556568
972,769,0.16925019025802612,0.29444852471351624,-999.97412109375,-0.11636398732662201,-0.001580441021360457,-0.02188030071556568
971,769,0.16925019025802612,0.29444852471351624,-999.97412109375,-0.11636398732662201,-0.001580441021360457,-0.02188030071556568
999,769,0.16925019025802612,0.29444852471351624,-999.97412109375,-0.11636398732662201,-0.001580441021360457,-0.02188030071556568
929,769,0.16925019025802612,0.29444852471351624,-999.97412109375,-0.11636398732662201,-0.001580441021360457,-0.02188030071556568
903,769,0.16925019025802612,0.29444852471351624,-999.97412109375,-0.11636398732662201,-0.001580441021360457,-0.02188030071556568
902,769,0.16925019025802612,0.29444852471351624,-999.97412109375,-0.11636398732662201,-0.001580441021360457,-0.02188030071556568
930,769,0.16925019025802612,0.29444852471351624,-999.97412109375,-0.11636398732662201,-0.001580441021360457,-0.02188030071556568
999,770,0.026609526947140694,0.20052923262119293,-1000.0238037109375,-0.0031916494481265545,-0.016783656552433968,0.027724873274564743
971,770,0.026609526947140694,0.20052923262119293,-1000.0238037109375,-0.0031916494481265545,-0.016783656552433968,0.027724873274564743
984,770,0.026609526947140694,0.20052923262119293,-1000.0238037109375,-0.0031916494481265545,-0.016783656552433968,0.027724873274564743
1004,770,0.026609526947140694,0.20052923262119293,-1000.0238037109375,-0.0031916494481265545,-0.016783656552433968,0.027724873274564743
930,770,0.026609526947140694,0.20052923262119293,-1000.0238037109375,-0.0031916494481265545,-0.016783656552433968,0.027724873274564743
902,770,0.026609526947140694,0.20052923262119293,-1000.0238037109375,-0.0031916494481265545,-0.016783656552433968,0.027724873274564743
915,770,0.026609526947140694,0.20052923262119293,-1000.0238037109375,-0.0031916494481265545,-0.016783656552433968,0.027724873274564743
935,770,0.026609526947140694,0.20052923262119293,-1000.0238037109375,-0.0031916494481265545,-0.016783656552433968,0.027724873274564743
1004,771,0.05427587032318115,0.1699436604976654,-999.9863891601562,0.03994304686784744,0.013038905337452888,0.011198695749044418
984,771,0.05427587032318115,0.1699436604976654,-999.9863891601562,0.03994304686784744,0.013038905337452888,0.011198695749044418
970,771,0.05427587032318115,0.1699436604976654,-999.9863891601562,0.03994304686784744,0.013038905337452888,0.011198695749044418
1000,771,0.05427587032318115,0.1699436604976654,-999.9863891601562,0.03994304686784744,0.013038905337452888,0.011198695749044418
935,771,0.05427587032318115,0.1699436604976654,-999.9863891601562,0.03994304686784744,0.013038905337452888,0.011198695749044418
915,771,0.05427587032318115,0.1699436604976654,-999.9863891601562,0.03994304686784744,0.013038905337452888,0.011198695749044418
901,771,0.05427587032318115,0.1699436604976654,-999.9863891601562,0.03994304686784744,0.013038905337452888,0.011198695749044418
931,771,0.05427587032318115,0.1699436604976654,-999.9863891601562,0.03994304686784744,0.013038905337452888,0.011198695749044418
1024,772,0.4464309811592102,0.46358126401901245,-999.9854736328125,0.19071203470230103,-0.003269453765824437,0.03229977563023567
969,772,0.4464309811592102,0.46358126401901245,-999.9854736328125,0.19071203470230103,-0.003269453765824437,0.03229977563023567
968,772,0.4464309811592102,0.46358126401901245,-999.9854736328125,0.19071203470230103,-0.003269453765824437,0.03229977563023567
1025,772,0.4464309811592102,0.46358126401901245,-999.9854736328125,0.19071203470230103,-0.003269453765824437,0.03229977563023567
955,772,0.4464309811592102,0.46358126401901245,-999.9854736328125,0.19071203470230103,-0.003269453765824437,0.03229977563023567
900,772,0.4464309811592102,0.46358126401901245,-999.9854736328125,0.19071203470230103,-0.003269453765824437,0.03229977563023567
899,772,0.4464309811592102,0.46358126401901245,-999.9854736328125,0.19071203470230103,-0.003269453765824437,0.03229977563023567
956,772,0.4464309811592102,0.46358126401901245,-999.9854736328125,0.19071203470230103,-0.003269453765824437,0.03229977563023567
1003,773,0.008682713843882084,0.10951747745275497,-1000.0089111328125,0.04207833111286163,0.008033080957829952,0.022656360641121864
983,773,0.008682713843882084,0.10951747745275497,-1000.0089111328125,0.04207833111286163,0.008033080957829952,0.022656360641121864
967,773,0.008682713843882084,0.10951747745275497,-1000.0089111328125,0.04207833111286163,0.008033080957829952,0.022656360641121864
1002,773,0.008682713843882084,0.10951747745275497,-1000.0089111328125,0.04207833111286163,0.008033080957829952,0.022656360641121864
934,773,0.008682713843882084,0.10951747745275497,-1000.0089111328125,0.04207833111286163,0.008033080957829952,0.022656360641121864
914,773,0.008682713843882084,0.10951747745275497,-1000.0089111328125,0.04207833111286163,0.008033080957829952,0.022656360641121864
898,773,0.008682713843882084,0.10951747745275497,-1000.0089111328125,0.04207833111286163,0.008033080957829952,0.022656360641121864
933,773,0.008682713843882084,0.10951747745275497,-1000.0089111328125,0.04207833111286163,0.008033080957829952,0.022656360641121864
1026,774,-0.5799538493156433,-0.7484376430511475,-1000.2041015625,-0.124762624502182,0.013028980232775211,-0.03782074153423309
1002,774,-0.5799538493156433,-0.7484376430511475,-1000.2041015625,-0.124762624502182,0.013028980232775211,-0.03782074153423309
994,774,-0.5799538493156433,-0.7484376430511475,-1000.2041015625,-0.124762624502182,0.013028980232775211,-0.03782074153423309
1009,774,-0.5799538493156433,-0.7484376430511475,-1000.2041015625,-0.124762624502182,0.013028980232775211,-0.03782074153423309
957,774,-0.5799538493156433,-0.7484376430511475,-1000.2041015625,-0.124762624502182,0.013028980232775211,-0.03782074153423309
933,774,-0.5799538493156433,-0.7484376430511475,-1000.2041015625,-0.124762624502182,0.013028980232775211,-0.03782074153423309
925,774,-0.5799538493156433,-0.7484376430511475,-1000.2041015625,-0.124762624502182,0.013028980232775211,-0.03782074153423309
940,774,-0.5799538493156433,-0.7484376430511475,-1000.2041015625,-0.124762624502182,0.013028980232775211,-0.03782074153423309
1025,775,-0.2744424343109131,-0.6322014331817627,-1000.1018676757812,-0.07609594613313675,-0.05773181468248367,-0.014054388739168644
1003,775,-0.2744424343109131,-0.6322014331817627,-1000.1018676757812,-0.07609594613313675,-0.05773181468248367,-0.014054388739168644
1015,775,-0.2744424343109131,-0.6322014331817627,-1000.1018676757812,-0.07609594613313675,-0.05773181468248367,-0.014054388739168644
1001,775,-0.2744424343109131,-0.6322014331817627,-1000.1018676757812,-0.07609594613313675,-0.05773181468248367,-0.014054388739168644
956,775,-0.2744424343109131,-0.6322014331817627,-1000.1018676757812,-0.07609594613313675,-0.05773181468248367,-0.014054388739168644
934,775,-0.2744424343109131,-0.6322014331817627,-1000.1018676757812,-0.07609594613313675,-0.05773181468248367,-0.014054388739168644
946,775,-0.2744424343109131,-0.6322014331817627,-1000.1018676757812,-0.07609594613313675,-0.05773181468248367,-0.014054388739168644
932,775,-0.2744424343109131,-0.6322014331817627,-1000.1018676757812,-0.07609594613313675,-0.05773181468248367,-0.014054388739168644
1000,776,0.18575578927993774,0.27577605843544006,-1000.0011596679688,0.19230979681015015,-0.016757158562541008,0.003030375810340047
970,776,0.18575578927993774,0.27577605843544006,-1000.0011596679688,0.19230979681015015,-0.016757158562541008,0.003030375810340047
969,776,0.18575578927993774,0.27577605843544006,-1000.0011596679688,0.19230979681015015,-0.016757158562541008,0.003030375810340047
1024,776,0.18575578927993774,0.27577605843544006,-1000.0011596679688,0.19230979681015015,-0.016757158562541008,0.003030375810340047
931,776,0.18575578927993774,0.27577605843544006,-1000.0011596679688,0.19230979681015015,-0.016757158562541008,0.003030375810340047
901,776,0.18575578927993774,0.27577605843544006,-1000.0011596679688,0.19230979681015015,-0.016757158562541008,0.003030375810340047
900,776,0.18575578927993774,0.27577605843544006,-1000.0011596679688,0.19230979681015015,-0.016757158562541008,0.003030375810340047
955,776,0.18575578927993774,0.27577605843544006,-1000.0011596679688,0.19230979681015015,-0.016757158562541008,0.003030375810340047
1009,777,-0.0015732148895040154,0.5697852969169617,-999.7681884765625,-0.013346286490559578,-0.14974713325500488,0.1542365700006485
994,777,-0.0015732148895040154,0.5697852969169617,-999.7681884765625,-0.013346286490559578,-0.14974713325500488,0.1542365700006485
991,777,-0.0015732148895040154,0.5697852969169617,-999.7681884765625,-0.013346286490559578,-0.14974713325500488,0.1542365700006485
1035,777,-0.0015732148895040154,0.5697852969169617,-999.7681884765625,-0.013346286490559578,-0.14974713325500488,0.1542365700006485
940,777,-0.0015732148895040154,0.5697852969169617,-999.7681884765625,-0.013346286490559578,-0.14974713325500488,0.1542365700006485
925,777,-0.0015732148895040154,0.5697852969169617,-999.7681884765625,-0.013346286490559578,-0.14974713325500488,0.1542365700006485
922,777,-0.0015732148895040154,0.5697852969169617,-999.7681884765625,-0.013346286490559578,-0.14974713325500488,0.1542365700006485
966,777,-0.0015732148895040154,0.5697852969169617,-999.7681884765625,-0.013346286490559578,-0.14974713325500488,0.1542365700006485
1020,778,-0.06361555308103561,-0.18115025758743286,-1000.0311279296875,-0.23150615394115448,0.020205294713377953,0.07427329570055008
1035,778,-0.06361555308103561,-0.18115025758743286,-1000.0311279296875,-0.23150615394115448,0.020205294713377953,0.07427329570055008
1011,778,-0.06361555308103561,-0.18115025758743286,-1000.0311279296875,-0.23150615394115448,0.020205294713377953,0.07427329570055008
1019,778,-0.06361555308103561,-0.18115025758743286,-1000.0311279296875,-0.23150615394115448,0.020205294713377953,0.07427329570055008
951,778,-0.06361555308103561,-0.18115025758743286,-1000.0311279296875,-0.23150615394115448,0.020205294713377953,0.07427329570055008
966,778,-0.06361555308103561,-0.18115025758743286,-1000.0311279296875,-0.23150615394115448,0.020205294713377953,0.07427329570055008
942,778,-0.06361555308103561,-0.18115025758743286,-1000.0311279296875,-0.23150615394115448,0.020205294713377953,0.07427329570055008
950,778,-0.06361555308103561,-0.18115025758743286,-1000.0311279296875,-0.23150615394115448,0.020205294713377953,0.07427329570055008
990,779,0.03891323134303093,-0.29790157079696655,-999.7699584960938,0.13861732184886932,-0.029803521931171417,0.12734314799308777
1007,779,0.03891323134303093,-0.29790157079696655,-999.7699584960938,0.13861732184886932,-0.029803521931171417,0.12734314799308777
1029,779,0.03891323134303093,-0.29790157079696655,-999.7699584960938,0.13861732184886932,-0.029803521931171417,0.12734314799308777
1014,779,0.03891323134303093,-0.29790157079696655,-999.7699584960938,0.13861732184886932,-0.029803521931171417,0.12734314799308777
921,779,0.03891323134303093,-0.29790157079696655,-999.7699584960938,0.13861732184886932,-0.029803521931171417,0.12734314799308777
938,779,0.03891323134303093,-0.29790157079696655,-999.7699584960938,0.13861732184886932,-0.029803521931171417,0.12734314799308777
960,779,0.03891323134303093,-0.29790157079696655,-999.7699584960938,0.13861732184886932,-0.029803521931171417,0.12734314799308777
945,779,0.03891323134303093,-0.29790157079696655,-999.7699584960938,0.13861732184886932,-0.029803521931171417,0.12734314799308777
1014,780,-0.09764791280031204,0.5043780207633972,-999.9985961914062,0.023718608543276787,0.03472219035029411,-0.13985948264598846
1029,780,-0.09764791280031204,0.5043780207633972,-999.9985961914062,0.023718608543276787,0.03472219035029411,-0.13985948264598846
1013,780,-0.09764791280031204,0.5043780207633972,-999.9985961914062,0.023718608543276787,0.03472219035029411,-0.13985948264598846
1019,780,-0.09764791280031204,0.5043780207633972,-999.9985961914062,0.023718608543276787,0.03472219035029411,-0.13985948264598846
945,780,-0.09764791280031204,0.5043780207633972,-999.9985961914062,0.023718608543276787,0.03472219035029411,-0.13985948264598846
960,780,-0.09764791280031204,0.5043780207633972,-999.9985961914062,0.023718608543276787,0.03472219035029411,-0.13985948264598846
944,780,-0.09764791280031204,0.5043780207633972,-999.9985961914062,0.023718608543276787,0.03472219035029411,-0.13985948264598846
950,780,-0.09764791280031204,0.5043780207633972,-999.9985961914062,0.023718608543276787,0.03472219035029411,-0.13985948264598846
1016,781,-0.35948750376701355,-0.443478524684906,-1000.0448608398438,-0.15047012269496918,0.00762111647054553,-0.04628538340330124
1004,781,-0.35948750376701355,-0.443478524684906,-1000.0448608398438,-0.15047012269496918,0.00762111647054553,-0.04628538340330124
1000,781,-0.35948750376701355,-0.443478524684906,-1000.0448608398438,-0.15047012269496918,0.00762111647054553,-0.04628538340330124
1024,781,-0.35948750376701355,-0.443478524684906,-1000.0448608398438,-0.15047012269496918,0.00762111647054553,-0.04628538340330124
947,781,-0.35948750376701355,-0.443478524684906,-1000.0448608398438,-0.15047012269496918,0.00762111647054553,-0.04628538340330124
935,781,-0.35948750376701355,-0.443478524684906,-1000.0448608398438,-0.15047012269496918,0.00762111647054553,-0.04628538340330124
931,781,-0.35948750376701355,-0.443478524684906,-1000.0448608398438,-0.15047012269496918,0.00762111647054553,-0.04628538340330124
955,781,-0.35948750376701355,-0.443478524684906,-1000.0448608398438,-0.15047012269496918,0.00762111647054553,-0.04628538340330124
1014,782,0.3376353979110718,0.5686326026916504,-999.934326171875,-0.06665883213281631,0.11678402870893478,0.02699579857289791
1019,782,0.3376353979110718,0.5686326026916504,-999.934326171875,-0.06665883213281631,0.11678402870893478,0.02699579857289791
1011,782,0.3376353979110718,0.5686326026916504,-999.934326171875,-0.06665883213281631,0.11678402870893478,0.02699579857289791
1028,782,0.3376353979110718,0.5686326026916504,-999.934326171875,-0.06665883213281631,0.11678402870893478,0.02699579857289791
945,782,0.3376353979110718,0.5686326026916504,-999.934326171875,-0.06665883213281631,0.11678402870893478,0.02699579857289791
950,782,0.3376353979110718,0.5686326026916504,-999.934326171875,-0.06665883213281631,0.11678402870893478,0.02699579857289791
942,782,0.3376353979110718,0.5686326026916504,-999.934326171875,-0.06665883213281631,0.11678402870893478,0.02699579857289791
959,782,0.3376353979110718,0.5686326026916504,-999.934326171875,-0.06665883213281631,0.11678402870893478,0.02699579857289791
992,783,-0.16723626852035522,-0.7678949236869812,-999.9251708984375,0.05625367909669876,0.036944713443517685,0.08147522807121277
1023,783,-0.16723626852035522,-0.7678949236869812,-999.9251708984375,0.05625367909669876,0.036944713443517685,0.08147522807121277
1030,783,-0.16723626852035522,-0.7678949236869812,-999.9251708984375,0.05625367909669876,0.036944713443517685,0.08147522807121277
1013,783,-0.16723626852035522,-0.7678949236869812,-999.9251708984375,0.05625367909669876,0.036944713443517685,0.08147522807121277
923,783,-0.16723626852035522,-0.7678949236869812,-999.9251708984375,0.05625367909669876,0.036944713443517685,0.08147522807121277
954,783,-0.16723626852035522,-0.7678949236869812,-999.9251708984375,0.05625367909669876,0.036944713443517685,0.08147522807121277
961,783,-0.16723626852035522,-0.7678949236869812,-999.9251708984375,0.05625367909669876,0.036944713443517685,0.08147522807121277
944,783,-0.16723626852035522,-0.7678949236869812,-999.9251708984375,0.05625367909669876,0.036944713443517685,0.08147522807121277
1034,784,0.35793542861938477,0.38037705421447754,-1000.0104370117188,0.11946618556976318,-0.09126660227775574,0.1412149965763092
1016,784,0.35793542861938477,0.38037705421447754,-1000.0104370117188,0.11946618556976318,-0.09126660227775574,0.1412149965763092
1001,784,0.35793542861938477,0.38037705421447754,-1000.0104370117188,0.11946618556976318,-0.09126660227775574,0.1412149965763092
1022,784,0.35793542861938477,0.38037705421447754,-1000.0104370117188,0.11946618556976318,-0.09126660227775574,0.1412149965763092
965,784,0.35793542861938477,0.38037705421447754,-1000.0104370117188,0.11946618556976318,-0.09126660227775574,0.1412149965763092
947,784,0.35793542861938477,0.38037705421447754,-1000.0104370117188,0.11946618556976318,-0.09126660227775574,0.1412149965763092
932,784,0.35793542861938477,0.38037705421447754,-1000.0104370117188,0.11946618556976318,-0.09126660227775574,0.1412149965763092
953,784,0.35793542861938477,0.38037705421447754,-1000.0104370117188,0.11946618556976318,-0.09126660227775574,0.1412149965763092
1010,785,0.5746454000473022,-0.0772378221154213,-999.984375,0.014723737724125385,-0.08761712163686752,-0.04250379651784897
1032,785,0.5746454000473022,-0.0772378221154213,-999.984375,0.014723737724125385,-0.08761712163686752,-0.04250379651784897
1017,785,0.5746454000473022,-0.0772378221154213,-999.984375,0.014723737724125385,-0.08761712163686752,-0.04250379651784897
1021,785,0.5746454000473022,-0.0772378221154213,-999.984375,0.014723737724125385,-0.08761712163686752,-0.04250379651784897
941,785,0.5746454000473022,-0.0772378221154213,-999.984375,0.014723737724125385,-0.08761712163686752,-0.04250379651784897
963,785,0.5746454000473022,-0.0772378221154213,-999.984375,0.014723737724125385,-0.08761712163686752,-0.04250379651784897
948,785,0.5746454000473022,-0.0772378221154213,-999.984375,0.014723737724125385,-0.08761712163686752,-0.04250379651784897
952,785,0.5746454000473022,-0.0772378221154213,-999.984375,0.014723737724125385,-0.08761712163686752,-0.04250379651784897
1033,786,0.10994663089513779,0.13592559099197388,-999.9105224609375,0.3627314269542694,0.08955591917037964,-0.025310305878520012
1005,786,0.10994663089513779,0.13592559099197388,-999.9105224609375,0.3627314269542694,0.08955591917037964,-0.025310305878520012
998,786,0.10994663089513779,0.13592559099197388,-999.9105224609375,0.3627314269542694,0.08955591917037964,-0.025310305878520012
1012,786,0.10994663089513779,0.13592559099197388,-999.9105224609375,0.3627314269542694,0.08955591917037964,-0.025310305878520012
964,786,0.10994663089513779,0.13592559099197388,-999.9105224609375,0.3627314269542694,0.08955591917037964,-0.025310305878520012
936,786,0.10994663089513779,0.13592559099197388,-999.9105224609375,0.3627314269542694,0.08955591917037964,-0.025310305878520012
929,786,0.10994663089513779,0.13592559099197388,-999.9105224609375,0.3627314269542694,0.08955591917037964,-0.025310305878520012
943,786,0.10994663089513779,0.13592559099197388,-999.9105224609375,0.3627314269542694,0.08955591917037964,-0.025310305878520012
1022,787,-0.189218670129776,0.17690740525722504,-999.9867553710938,-0.20056705176830292,0.020784595981240273,-0.0996648520231247
1021,787,-0.189218670129776,0.17690740525722504,-999.9867553710938,-0.20056705176830292,0.020784595981240273,-0.0996648520231247
1012,787,-0.189218670129776,0.17690740525722504,-999.9867553710938,-0.20056705176830292,0.020784595981240273,-0.0996648520231247
1034,787,-0.189218670129776,0.17690740525722504,-999.9867553710938,-0.20056705176830292,0.020784595981240273,-0.0996648520231247
953,787,-0.189218670129776,0.17690740525722504,-999.9867553710938,-0.20056705176830292,0.020784595981240273,-0.0996648520231247
952,787,-0.189218670129776,0.17690740525722504,-999.9867553710938,-0.20056705176830292,0.020784595981240273,-0.0996648520231247
943,787,-0.189218670129776,0.17690740525722504,-999.9867553710938,-0.20056705176830292,0.020784595981240273,-0.0996648520231247
965,787,-0.189218670129776,0.17690740525722504,-999.9867553710938,-0.20056705176830292,0.020784595981240273,-0.0996648520231247
1022,788,-0.05953238531947136,-0.39663395285606384,-1000.031494140625,0.007474248763173819,-0.237000972032547,-0.07810236513614655
1027,788,-0.05953238531947136,-0.39663395285606384,-1000.031494140625,0.007474248763173819,-0.237000972032547,-0.07810236513614655
1020,788,-0.05953238531947136,-0.39663395285606384,-1000.031494140625,0.007474248763173819,-0.237000972032547,-0.07810236513614655
1019,788,-0.05953238531947136,-0.39663395285606384,-1000.031494140625,0.007474248763173819,-0.237000972032547,-0.07810236513614655
953,788,-0.05953238531947136,-0.39663395285606384,-1000.031494140625,0.007474248763173819,-0.237000972032547,-0.07810236513614655
958,788,-0.05953238531947136,-0.39663395285606384,-1000.031494140625,0.007474248763173819,-0.237000972032547,-0.07810236513614655
951,788,-0.05953238531947136,-0.39663395285606384,-1000.031494140625,0.007474248763173819,-0.237000972032547,-0.07810236513614655
950,788,-0.05953238531947136,-0.39663395285606384,-1000.031494140625,0.007474248763173819,-0.237000972032547,-0.07810236513614655
1012,789,0.5330760478973389,0.3251022398471832,-999.9876098632812,-0.053950875997543335,-0.08285407721996307,0.15476731956005096
1021,789,0.5330760478973389,0.3251022398471832,-999.9876098632812,-0.053950875997543335,-0.08285407721996307,0.15476731956005096
1017,789,0.5330760478973389,0.3251022398471832,-999.9876098632812,-0.053950875997543335,-0.08285407721996307,0.15476731956005096
1033,789,0.5330760478973389,0.3251022398471832,-999.9876098632812,-0.053950875997543335,-0.08285407721996307,0.15476731956005096
943,789,0.5330760478973389,0.3251022398471832,-999.9876098632812,-0.053950875997543335,-0.08285407721996307,0.15476731956005096
952,789,0.5330760478973389,0.3251022398471832,-999.9876098632812,-0.053950875997543335,-0.08285407721996307,0.15476731956005096
948,789,0.5330760478973389,0.3251022398471832,-999.9876098632812,-0.053950875997543335,-0.08285407721996307,0.15476731956005096
964,789,0.5330760478973389,0.3251022398471832,-999.9876098632812,-0.053950875997543335,-0.08285407721996307,0.15476731956005096
1023,790,0.13687090575695038,0.3514774441719055,-1000.0093994140625,0.11431239545345306,-0.009833087213337421,0.003884931793436408
977,790,0.13687090575695038,0.3514774441719055,-1000.0093994140625,0.11431239545345306,-0.009833087213337421,0.003884931793436408
976,790,0.13687090575695038,0.3514774441719055,-1000.0093994140625,0.11431239545345306,-0.009833087213337421,0.003884931793436408
993,790,0.13687090575695038,0.3514774441719055,-1000.0093994140625,0.11431239545345306,-0.009833087213337421,0.003884931793436408
954,790,0.13687090575695038,0.3514774441719055,-1000.0093994140625,0.11431239545345306,-0.009833087213337421,0.003884931793436408
908,790,0.13687090575695038,0.3514774441719055,-1000.0093994140625,0.11431239545345306,-0.009833087213337421,0.003884931793436408
907,790,0.13687090575695038,0.3514774441719055,-1000.0093994140625,0.11431239545345306,-0.009833087213337421,0.003884931793436408
924,790,0.13687090575695038,0.3514774441719055,-1000.0093994140625,0.11431239545345306,-0.009833087213337421,0.003884931793436408
1025,791,0.13038010895252228,0.29519256949424744,-999.9923095703125,0.1607094705104828,0.030667930841445923,-0.02051881141960621
968,791,0.13038010895252228,0.29519256949424744,-999.9923095703125,0.1607094705104828,0.030667930841445923,-0.02051881141960621
983,791,0.13038010895252228,0.29519256949424744,-999.9923095703125,0.1607094705104828,0.030667930841445923,-0.02051881141960621
1003,791,0.13038010895252228,0.29519256949424744,-999.9923095703125,0.1607094705104828,0.030667930841445923,-0.02051881141960621
956,791,0.13038010895252228,0.29519256949424744,-999.9923095703125,0.1607094705104828,0.030667930841445923,-0.02051881141960621
899,791,0.13038010895252228,0.29519256949424744,-999.9923095703125,0.1607094705104828,0.030667930841445923,-0.02051881141960621
914,791,0.13038010895252228,0.29519256949424744,-999.9923095703125,0.1607094705104828,0.030667930841445923,-0.02051881141960621
934,791,0.13038010895252228,0.29519256949424744,-999.9923095703125,0.1607094705104828,0.030667930841445923,-0.02051881141960621
1002,792,0.16834959387779236,0.18161705136299133,-999.8713989257812,-0.14935137331485748,-0.10277548432350159,0.008024723269045353
1026,792,0.16834959387779236,0.18161705136299133,-999.8713989257812,-0.14935137331485748,-0.10277548432350159,0.008024723269045353
1015,792,0.16834959387779236,0.18161705136299133,-999.8713989257812,-0.14935137331485748,-0.10277548432350159,0.008024723269045353
1003,792,0.16834959387779236,0.18161705136299133,-999.8713989257812,-0.14935137331485748,-0.10277548432350159,0.008024723269045353
933,792,0.16834959387779236,0.18161705136299133,-999.8713989257812,-0.14935137331485748,-0.10277548432350159,0.008024723269045353
957,792,0.16834959387779236,0.18161705136299133,-999.8713989257812,-0.14935137331485748,-0.10277548432350159,0.008024723269045353
946,792,0.16834959387779236,0.18161705136299133,-999.8713989257812,-0.14935137331485748,-0.10277548432350159,0.008024723269045353
934,792,0.16834959387779236,0.18161705136299133,-999.8713989257812,-0.14935137331485748,-0.10277548432350159,0.008024723269045353
1026,793,0.5078656077384949,0.3102802038192749,-999.9110107421875,0.2103230208158493,0.2549327313899994,-0.14749202132225037
1009,793,0.5078656077384949,0.3102802038192749,-999.9110107421875,0.2103230208158493,0.2549327313899994,-0.14749202132225037
1035,793,0.5078656077384949,0.3102802038192749,-999.9110107421875,0.2103230208158493,0.2549327313899994,-0.14749202132225037
1020,793,0.5078656077384949,0.3102802038192749,-999.9110107421875,0.2103230208158493,0.2549327313899994,-0.14749202132225037
957,793,0.5078656077384949,0.3102802038192749,-999.9110107421875,0.2103230208158493,0.2549327313899994,-0.14749202132225037
940,793,0.5078656077384949,0.3102802038192749,-999.9110107421875,0.2103230208158493,0.2549327313899994,-0.14749202132225037
966,793,0.5078656077384949,0.3102802038192749,-999.9110107421875,0.2103230208158493,0.2549327313899994,-0.14749202132225037
951,793,0.5078656077384949,0.3102802038192749,-999.9110107421875,0.2103230208158493,0.2549327313899994,-0.14749202132225037
1028,794,-0.3324640095233917,-0.9657812118530273,-1000.2998046875,-0.06035284325480461,-0.10576555132865906,-0.10231061279773712
989,794,-0.3324640095233917,-0.9657812118530273,-1000.2998046875,-0.06035284325480461,-0.10576555132865906,-0.10231061279773712
990,794,-0.3324640095233917,-0.9657812118530273,-1000.2998046875,-0.06035284325480461,-0.10576555132865906,-0.10231061279773712
1014,794,-0.3324640095233917,-0.9657812118530273,-1000.2998046875,-0.06035284325480461,-0.10576555132865906,-0.10231061279773712
959,794,-0.3324640095233917,-0.9657812118530273,-1000.2998046875,-0.06035284325480461,-0.10576555132865906,-0.10231061279773712
920,794,-0.3324640095233917,-0.9657812118530273,-1000.2998046875,-0.06035284325480461,-0.10576555132865906,-0.10231061279773712
921,794,-0.3324640095233917,-0.9657812118530273,-1000.2998046875,-0.06035284325480461,-0.10576555132865906,-0.10231061279773712
945,794,-0.3324640095233917,-0.9657812118530273,-1000.2998046875,-0.06035284325480461,-0.10576555132865906,-0.10231061279773712
1029,795,-0.22453603148460388,-0.6024492979049683,-1000.18212890625,-0.12173453718423843,0.006694831885397434,0.028802994638681412
1007,795,-0.22453603148460388,-0.6024492979049683,-1000.18212890625,-0.12173453718423843,0.006694831885397434,0.028802994638681412
992,795,-0.22453603148460388,-0.6024492979049683,-1000.18212890625,-0.12173453718423843,0.006694831885397434,0.028802994638681412
1013,795,-0.22453603148460388,-0.6024492979049683,-1000.18212890625,-0.12173453718423843,0.006694831885397434,0.028802994638681412
960,795,-0.22453603148460388,-0.6024492979049683,-1000.18212890625,-0.12173453718423843,0.006694831885397434,0.028802994638681412
938,795,-0.22453603148460388,-0.6024492979049683,-1000.18212890625,-0.12173453718423843,0.006694831885397434,0.028802994638681412
923,795,-0.22453603148460388,-0.6024492979049683,-1000.18212890625,-0.12173453718423843,0.006694831885397434,0.028802994638681412
944,795,-0.22453603148460388,-0.6024492979049683,-1000.18212890625,-0.12173453718423843,0.006694831885397434,0.028802994638681412
1031,796,-0.19515585899353027,0.1943436563014984,-999.9891967773438,0.013995795510709286,0.13306549191474915,-0.018711639568209648
1006,796,-0.19515585899353027,0.1943436563014984,-999.9891967773438,0.013995795510709286,0.13306549191474915,-0.018711639568209648
995,796,-0.19515585899353027,0.1943436563014984,-999.9891967773438,0.013995795510709286,0.13306549191474915,-0.018711639568209648
1010,796,-0.19515585899353027,0.1943436563014984,-999.9891967773438,0.013995795510709286,0.13306549191474915,-0.018711639568209648
962,796,-0.19515585899353027,0.1943436563014984,-999.9891967773438,0.013995795510709286,0.13306549191474915,-0.018711639568209648
937,796,-0.19515585899353027,0.1943436563014984,-999.9891967773438,0.013995795510709286,0.13306549191474915,-0.018711639568209648
926,796,-0.19515585899353027,0.1943436563014984,-999.9891967773438,0.013995795510709286,0.13306549191474915,-0.018711639568209648
941,796,-0.19515585899353027,0.1943436563014984,-999.9891967773438,0.013995795510709286,0.13306549191474915,-0.018711639568209648
1032,797,-0.32210686802864075,0.18438541889190674,-999.9176635742188,0.12841066718101501,0.14643897116184235,-0.026584843173623085
996,797,-0.32210686802864075,0.18438541889190674,-999.9176635742188,0.12841066718101501,0.14643897116184235,-0.026584843173623085
997,797,-0.32210686802864075,0.18438541889190674,-999.9176635742188,0.12841066718101501,0.14643897116184235,-0.026584843173623085
1017,797,-0.32210686802864075,0.18438541889190674,-999.9176635742188,0.12841066718101501,0.14643897116184235,-0.026584843173623085
963,797,-0.32210686802864075,0.18438541889190674,-999.9176635742188,0.12841066718101501,0.14643897116184235,-0.026584843173623085
927,797,-0.32210686802864075,0.18438541889190674,-999.9176635742188,0.12841066718101501,0.14643897116184235,-0.026584843173623085
928,797,-0.32210686802864075,0.18438541889190674,-999.9176635742188,0.12841066718101501,0.14643897116184235,-0.026584843173623085
948,797,-0.32210686802864075,0.18438541889190674,-999.9176635742188,0.12841066718101501,0.14643897116184235,-0.026584843173623085
1034,798,0.2784700095653534,-0.002905788831412792,-999.9332885742188,0.13480305671691895,0.04261480271816254,-0.05892450362443924
999,798,0.2784700095653534,-0.002905788831412792,-999.9332885742188,0.13480305671691895,0.04261480271816254,-0.05892450362443924
1004,798,0.2784700095653534,-0.002905788831412792,-999.9332885742188,0.13480305671691895,0.04261480271816254,-0.05892450362443924
1016,798,0.2784700095653534,-0.002905788831412792,-999.9332885742188,0.13480305671691895,0.04261480271816254,-0.05892450362443924
965,798,0.2784700095653534,-0.002905788831412792,-999.9332885742188,0.13480305671691895,0.04261480271816254,-0.05892450362443924
930,798,0.2784700095653534,-0.002905788831412792,-999.9332885742188,0.13480305671691895,0.04261480271816254,-0.05892450362443924
935,798,0.2784700095653534,-0.002905788831412792,-999.9332885742188,0.13480305671691895,0.04261480271816254,-0.05892450362443924
947,798,0.2784700095653534,-0.002905788831412792,-999.9332885742188,0.13480305671691895,0.04261480271816254,-0.05892450362443924
1059,799,-0.07546396553516388,-0.45369067788124084,-1000.00537109375,-0.019050417467951775,-0.018628766760230064,-0.009708593599498272
1048,799,-0.07546396553516388,-0.45369067788124084,-1000.00537109375,-0.019050417467951775,-0.018628766760230064,-0.009708593599498272
1047,799,-0.07546396553516388,-0.45369067788124084,-1000.00537109375,-0.019050417467951775,-0.018628766760230064,-0.009708593599498272
1076,799,-0.07546396553516388,-0.45369067788124084,-1000.00537109375,-0.019050417467951775,-0.018628766760230064,-0.009708593599498272
990,799,-0.07546396553516388,-0.45369067788124084,-1000.00537109375,-0.019050417467951775,-0.018628766760230064,-0.009708593599498272
979,799,-0.07546396553516388,-0.45369067788124084,-1000.00537109375,-0.019050417467951775,-0.018628766760230064,-0.009708593599498272
978,799,-0.07546396553516388,-0.45369067788124084,-1000.00537109375,-0.019050417467951775,-0.018628766760230064,-0.009708593599498272
1007,799,-0.07546396553516388,-0.45369067788124084,-1000.00537109375,-0.019050417467951775,-0.018628766760230064,-0.009708593599498272
1076,800,-0.15030209720134735,-0.4989840090274811,-999.9880981445312,0.050774361938238144,0.006161702796816826,0.041033145040273666
1047,800,-0.15030209720134735,-0.4989840090274811,-999.9880981445312,0.050774361938238144,0.006161702796816826,0.041033145040273666
1056,800,-0.15030209720134735,-0.4989840090274811,-999.9880981445312,0.050774361938238144,0.006161702796816826,0.041033145040273666
1061,800,-0.15030209720134735,-0.4989840090274811,-999.9880981445312,0.050774361938238144,0.006161702796816826,0.041033145040273666
1007,800,-0.15030209720134735,-0.4989840090274811,-999.9880981445312,0.050774361938238144,0.006161702796816826,0.041033145040273666
978,800,-0.15030209720134735,-0.4989840090274811,-999.9880981445312,0.050774361938238144,0.006161702796816826,0.041033145040273666
987,800,-0.15030209720134735,-0.4989840090274811,-999.9880981445312,0.050774361938238144,0.006161702796816826,0.041033145040273666
992,800,-0.15030209720134735,-0.4989840090274811,-999.9880981445312,0.050774361938238144,0.006161702796816826,0.041033145040273666
1057,801,-0.09185711294412613,-0.060244280844926834,-1000.0006103515625,0.05490736663341522,-0.020447729155421257,0.021712899208068848
1077,801,-0.09185711294412613,-0.060244280844926834,-1000.0006103515625,0.05490736663341522,-0.020447729155421257,0.021712899208068848
1060,801,-0.09185711294412613,-0.060244280844926834,-1000.0006103515625,0.05490736663341522,-0.020447729155421257,0.021712899208068848
1050,801,-0.09185711294412613,-0.060244280844926834,-1000.0006103515625,0.05490736663341522,-0.020447729155421257,0.021712899208068848
988,801,-0.09185711294412613,-0.060244280844926834,-1000.0006103515625,0.05490736663341522,-0.020447729155421257,0.021712899208068848
1008,801,-0.09185711294412613,-0.060244280844926834,-1000.0006103515625,0.05490736663341522,-0.020447729155421257,0.021712899208068848
991,801,-0.09185711294412613,-0.060244280844926834,-1000.0006103515625,0.05490736663341522,-0.020447729155421257,0.021712899208068848
981,801,-0.09185711294412613,-0.060244280844926834,-1000.0006103515625,0.05490736663341522,-0.020447729155421257,0.021712899208068848
1048,802,-0.16419044137001038,-0.5212674736976624,-1000.013427734375,0.10048214346170425,-0.018106646835803986,0.024492748081684113
1059,802,-0.16419044137001038,-0.5212674736976624,-1000.013427734375,0.10048214346170425,-0.018106646835803986,0.024492748081684113
1058,802,-0.16419044137001038,-0.5212674736976624,-1000.013427734375,0.10048214346170425,-0.018106646835803986,0.024492748081684113
1049,802,-0.16419044137001038,-0.5212674736976624,-1000.013427734375,0.10048214346170425,-0.018106646835803986,0.024492748081684113
979,802,-0.16419044137001038,-0.5212674736976624,-1000.013427734375,0.10048214346170425,-0.018106646835803986,0.024492748081684113
990,802,-0.16419044137001038,-0.5212674736976624,-1000.013427734375,0.10048214346170425,-0.018106646835803986,0.024492748081684113
989,802,-0.16419044137001038,-0.5212674736976624,-1000.013427734375,0.10048214346170425,-0.018106646835803986,0.024492748081684113
980,802,-0.16419044137001038,-0.5212674736976624,-1000.013427734375,0.10048214346170425,-0.018106646835803986,0.024492748081684113
1087,803,-0.1553930789232254,-0.10679640620946884,-1000.0050659179688,-0.10887764394283295,0.04360038787126541,0.11385690420866013
1100,803,-0.1553930789232254,-0.10679640620946884,-1000.0050659179688,-0.10887764394283295,0.04360038787126541,0.11385690420866013
1079,803,-0.1553930789232254,-0.10679640620946884,-1000.0050659179688,-0.10887764394283295,0.04360038787126541,0.11385690420866013
1090,803,-0.1553930789232254,-0.10679640620946884,-1000.0050659179688,-0.10887764394283295,0.04360038787126541,0.11385690420866013
1018,803,-0.1553930789232254,-0.10679640620946884,-1000.0050659179688,-0.10887764394283295,0.04360038787126541,0.11385690420866013
1031,803,-0.1553930789232254,-0.10679640620946884,-1000.0050659179688,-0.10887764394283295,0.04360038787126541,0.11385690420866013
1010,803,-0.1553930789232254,-0.10679640620946884,-1000.0050659179688,-0.10887764394283295,0.04360038787126541,0.11385690420866013
1021,803,-0.1553930789232254,-0.10679640620946884,-1000.0050659179688,-0.10887764394283295,0.04360038787126541,0.11385690420866013
1103,804,0.585657000541687,0.6804457902908325,-999.9020385742188,0.0027656913734972477,0.0024004175793379545,-0.034259211272001266
1081,804,0.585657000541687,0.6804457902908325,-999.9020385742188,0.0027656913734972477,0.0024004175793379545,-0.034259211272001266
1067,804,0.585657000541687,0.6804457902908325,-999.9020385742188,0.0027656913734972477,0.0024004175793379545,-0.034259211272001266
1068,804,0.585657000541687,0.6804457902908325,-999.9020385742188,0.0027656913734972477,0.0024004175793379545,-0.034259211272001266
1034,804,0.585657000541687,0.6804457902908325,-999.9020385742188,0.0027656913734972477,0.0024004175793379545,-0.034259211272001266
1012,804,0.585657000541687,0.6804457902908325,-999.9020385742188,0.0027656913734972477,0.0024004175793379545,-0.034259211272001266
998,804,0.585657000541687,0.6804457902908325,-999.9020385742188,0.0027656913734972477,0.0024004175793379545,-0.034259211272001266
999,804,0.585657000541687,0.6804457902908325,-999.9020385742188,0.0027656913734972477,0.0024004175793379545,-0.034259211272001266
1091,805,0.2701263725757599,0.387404203414917,-999.9563598632812,-0.10571413487195969,-0.11468655616044998,-0.08362705260515213
1088,805,0.2701263725757599,0.387404203414917,-999.9563598632812,-0.10571413487195969,-0.11468655616044998,-0.08362705260515213
1087,805,0.2701263725757599,0.387404203414917,-999.9563598632812,-0.10571413487195969,-0.11468655616044998,-0.08362705260515213
1090,805,0.2701263725757599,0.387404203414917,-999.9563598632812,-0.10571413487195969,-0.11468655616044998,-0.08362705260515213
1022,805,0.2701263725757599,0.387404203414917,-999.9563598632812,-0.10571413487195969,-0.11468655616044998,-0.08362705260515213
1019,805,0.2701263725757599,0.387404203414917,-999.9563598632812,-0.10571413487195969,-0.11468655616044998,-0.08362705260515213
1018,805,0.2701263725757599,0.387404203414917,-999.9563598632812,-0.10571413487195969,-0.11468655616044998,-0.08362705260515213
1021,805,0.2701263725757599,0.387404203414917,-999.9563598632812,-0.10571413487195969,-0.11468655616044998,-0.08362705260515213
1082,806,-0.4087463915348053,-0.7269437313079834,-1000.0769653320312,-0.07442329078912735,0.10249818116426468,0.05562020465731621
1099,806,-0.4087463915348053,-0.7269437313079834,-1000.0769653320312,-0.07442329078912735,0.10249818116426468,0.05562020465731621
1087,806,-0.4087463915348053,-0.7269437313079834,-1000.0769653320312,-0.07442329078912735,0.10249818116426468,0.05562020465731621
1088,806,-0.4087463915348053,-0.7269437313079834,-1000.0769653320312,-0.07442329078912735,0.10249818116426468,0.05562020465731621
1013,806,-0.4087463915348053,-0.7269437313079834,-1000.0769653320312,-0.07442329078912735,0.10249818116426468,0.05562020465731621
1030,806,-0.4087463915348053,-0.7269437313079834,-1000.0769653320312,-0.07442329078912735,0.10249818116426468,0.05562020465731621
1018,806,-0.4087463915348053,-0.7269437313079834,-1000.0769653320312,-0.07442329078912735,0.10249818116426468,0.05562020465731621
1019,806,-0.4087463915348053,-0.7269437313079834,-1000.0769653320312,-0.07442329078912735,0.10249818116426468,0.05562020465731621
1062,807,0.19234518706798553,0.2134028524160385,-1000.0519409179688,0.097524493932724,0.09921242296695709,-0.10800527781248093
1075,807,0.19234518706798553,0.2134028524160385,-1000.0519409179688,0.097524493932724,0.09921242296695709,-0.10800527781248093
1100,807,0.19234518706798553,0.2134028524160385,-1000.0519409179688,0.097524493932724,0.09921242296695709,-0.10800527781248093
1087,807,0.19234518706798553,0.2134028524160385,-1000.0519409179688,0.097524493932724,0.09921242296695709,-0.10800527781248093
993,807,0.19234518706798553,0.2134028524160385,-1000.0519409179688,0.097524493932724,0.09921242296695709,-0.10800527781248093
1006,807,0.19234518706798553,0.2134028524160385,-1000.0519409179688,0.097524493932724,0.09921242296695709,-0.10800527781248093
1031,807,0.19234518706798553,0.2134028524160385,-1000.0519409179688,0.097524493932724,0.09921242296695709,-0.10800527781248093
1018,807,0.19234518706798553,0.2134028524160385,-1000.0519409179688,0.097524493932724,0.09921242296695709,-0.10800527781248093
1102,808,0.8963873386383057,0.43415769934654236,-999.8842163085938,0.21730269491672516,0.04374266415834427,0.08206485956907272
1086,808,0.8963873386383057,0.43415769934654236,-999.8842163085938,0.21730269491672516,0.04374266415834427,0.08206485956907272
1066,808,0.8963873386383057,0.43415769934654236,-999.8842163085938,0.21730269491672516,0.04374266415834427,0.08206485956907272
1074,808,0.8963873386383057,0.43415769934654236,-999.8842163085938,0.21730269491672516,0.04374266415834427,0.08206485956907272
1033,808,0.8963873386383057,0.43415769934654236,-999.8842163085938,0.21730269491672516,0.04374266415834427,0.08206485956907272
1017,808,0.8963873386383057,0.43415769934654236,-999.8842163085938,0.21730269491672516,0.04374266415834427,0.08206485956907272
997,808,0.8963873386383057,0.43415769934654236,-999.8842163085938,0.21730269491672516,0.04374266415834427,0.08206485956907272
1005,808,0.8963873386383057,0.43415769934654236,-999.8842163085938,0.21730269491672516,0.04374266415834427,0.08206485956907272
1096,809,-0.26065751910209656,-0.4291752576828003,-1000.1334228515625,-0.10657887905836105,-0.296102374792099,0.16658622026443481
1091,809,-0.26065751910209656,-0.4291752576828003,-1000.1334228515625,-0.10657887905836105,-0.296102374792099,0.16658622026443481
1070,809,-0.26065751910209656,-0.4291752576828003,-1000.1334228515625,-0.10657887905836105,-0.296102374792099,0.16658622026443481
1084,809,-0.26065751910209656,-0.4291752576828003,-1000.1334228515625,-0.10657887905836105,-0.296102374792099,0.16658622026443481
1027,809,-0.26065751910209656,-0.4291752576828003,-1000.1334228515625,-0.10657887905836105,-0.296102374792099,0.16658622026443481
1022,809,-0.26065751910209656,-0.4291752576828003,-1000.1334228515625,-0.10657887905836105,-0.296102374792099,0.16658622026443481
1001,809,-0.26065751910209656,-0.4291752576828003,-1000.1334228515625,-0.10657887905836105,-0.296102374792099,0.16658622026443481
1015,809,-0.26065751910209656,-0.4291752576828003,-1000.1334228515625,-0.10657887905836105,-0.296102374792099,0.16658622026443481
1070,810,0.42328327894210815,0.22786888480186462,-1000.01318359375,0.2812574505805969,-0.0077356621623039246,0.013105211779475212
1085,810,0.42328327894210815,0.22786888480186462,-1000.01318359375,0.2812574505805969,-0.0077356621623039246,0.013105211779475212
1093,810,0.42328327894210815,0.22786888480186462,-1000.01318359375,0.2812574505805969,-0.0077356621623039246,0.013105211779475212
1094,810,0.42328327894210815,0.22786888480186462,-1000.01318359375,0.2812574505805969,-0.0077356621623039246,0.013105211779475212
1001,810,0.42328327894210815,0.22786888480186462,-1000.01318359375,0.2812574505805969,-0.0077356621623039246,0.013105211779475212
1016,810,0.42328327894210815,0.22786888480186462,-1000.01318359375,0.2812574505805969,-0.0077356621623039246,0.013105211779475212
1024,810,0.42328327894210815,0.22786888480186462,-1000.01318359375,0.2812574505805969,-0.0077356621623039246,0.013105211779475212
1025,810,0.42328327894210815,0.22786888480186462,-1000.01318359375,0.2812574505805969,-0.0077356621623039246,0.013105211779475212
1077,811,0.017572075128555298,-0.07395901530981064,-1000.2918701171875,-0.3746696710586548,2.495416993042454e-05,-0.13038423657417297
1058,811,0.017572075128555298,-0.07395901530981064,-1000.2918701171875,-0.3746696710586548,2.495416993042454e-05,-0.13038423657417297
1097,811,0.017572075128555298,-0.07395901530981064,-1000.2918701171875,-0.3746696710586548,2.495416993042454e-05,-0.13038423657417297
1080,811,0.017572075128555298,-0.07395901530981064,-1000.2918701171875,-0.3746696710586548,2.495416993042454e-05,-0.13038423657417297
1008,811,0.017572075128555298,-0.07395901530981064,-1000.2918701171875,-0.3746696710586548,2.495416993042454e-05,-0.13038423657417297
989,811,0.017572075128555298,-0.07395901530981064,-1000.2918701171875,-0.3746696710586548,2.495416993042454e-05,-0.13038423657417297
1028,811,0.017572075128555298,-0.07395901530981064,-1000.2918701171875,-0.3746696710586548,2.495416993042454e-05,-0.13038423657417297
1011,811,0.017572075128555298,-0.07395901530981064,-1000.2918701171875,-0.3746696710586548,2.495416993042454e-05,-0.13038423657417297
1104,812,0.3736940622329712,0.640485942363739,-999.7474975585938,-0.0516425222158432,0.05655279755592346,0.13628752529621124
1060,812,0.3736940622329712,0.640485942363739,-999.7474975585938,-0.0516425222158432,0.05655279755592346,0.13628752529621124
1077,812,0.3736940622329712,0.640485942363739,-999.7474975585938,-0.0516425222158432,0.05655279755592346,0.13628752529621124
1080,812,0.3736940622329712,0.640485942363739,-999.7474975585938,-0.0516425222158432,0.05655279755592346,0.13628752529621124
1035,812,0.3736940622329712,0.640485942363739,-999.7474975585938,-0.0516425222158432,0.05655279755592346,0.13628752529621124
991,812,0.3736940622329712,0.640485942363739,-999.7474975585938,-0.0516425222158432,0.05655279755592346,0.13628752529621124
1008,812,0.3736940622329712,0.640485942363739,-999.7474975585938,-0.0516425222158432,0.05655279755592346,0.13628752529621124
1011,812,0.3736940622329712,0.640485942363739,-999.7474975585938,-0.0516425222158432,0.05655279755592346,0.13628752529621124
1064,813,0.43779101967811584,0.29843369126319885,-999.9308471679688,0.05878663435578346,0.12441117316484451,-0.0924171730875969
1065,813,0.43779101967811584,0.29843369126319885,-999.9308471679688,0.05878663435578346,0.12441117316484451,-0.0924171730875969
1101,813,0.43779101967811584,0.29843369126319885,-999.9308471679688,0.05878663435578346,0.12441117316484451,-0.0924171730875969
1079,813,0.43779101967811584,0.29843369126319885,-999.9308471679688,0.05878663435578346,0.12441117316484451,-0.0924171730875969
995,813,0.43779101967811584,0.29843369126319885,-999.9308471679688,0.05878663435578346,0.12441117316484451,-0.0924171730875969
996,813,0.43779101967811584,0.29843369126319885,-999.9308471679688,0.05878663435578346,0.12441117316484451,-0.0924171730875969
1032,813,0.43779101967811584,0.29843369126319885,-999.9308471679688,0.05878663435578346,0.12441117316484451,-0.0924171730875969
1010,813,0.43779101967811584,0.29843369126319885,-999.9308471679688,0.05878663435578346,0.12441117316484451,-0.0924171730875969
1049,814,-0.199064701795578,-0.4570499062538147,-1000.00390625,0.21293236315250397,-0.0028740721754729748,-0.02776479534804821
1058,814,-0.199064701795578,-0.4570499062538147,-1000.00390625,0.21293236315250397,-0.0028740721754729748,-0.02776479534804821
1077,814,-0.199064701795578,-0.4570499062538147,-1000.00390625,0.21293236315250397,-0.0028740721754729748,-0.02776479534804821
1057,814,-0.199064701795578,-0.4570499062538147,-1000.00390625,0.21293236315250397,-0.0028740721754729748,-0.02776479534804821
980,814,-0.199064701795578,-0.4570499062538147,-1000.00390625,0.21293236315250397,-0.0028740721754729748,-0.02776479534804821
989,814,-0.199064701795578,-0.4570499062538147,-1000.00390625,0.21293236315250397,-0.0028740721754729748,-0.02776479534804821
1008,814,-0.199064701795578,-0.4570499062538147,-1000.00390625,0.21293236315250397,-0.0028740721754729748,-0.02776479534804821
988,814,-0.199064701795578,-0.4570499062538147,-1000.00390625,0.21293236315250397,-0.0028740721754729748,-0.02776479534804821
1046,815,-0.20356108248233795,-0.7062914967536926,-1000.0272216796875,-0.05083173140883446,0.00599656393751502,0.0073251440189778805
1092,815,-0.20356108248233795,-0.7062914967536926,-1000.0272216796875,-0.05083173140883446,0.00599656393751502,0.0073251440189778805
1061,815,-0.20356108248233795,-0.7062914967536926,-1000.0272216796875,-0.05083173140883446,0.00599656393751502,0.0073251440189778805
1056,815,-0.20356108248233795,-0.7062914967536926,-1000.0272216796875,-0.05083173140883446,0.00599656393751502,0.0073251440189778805
977,815,-0.20356108248233795,-0.7062914967536926,-1000.0272216796875,-0.05083173140883446,0.00599656393751502,0.0073251440189778805
1023,815,-0.20356108248233795,-0.7062914967536926,-1000.0272216796875,-0.05083173140883446,0.00599656393751502,0.0073251440189778805
992,815,-0.20356108248233795,-0.7062914967536926,-1000.0272216796875,-0.05083173140883446,0.00599656393751502,0.0073251440189778805
987,815,-0.20356108248233795,-0.7062914967536926,-1000.0272216796875,-0.05083173140883446,0.00599656393751502,0.0073251440189778805
1062,816,-0.24383194744586945,-0.03263334557414055,-1000.010498046875,-0.07495150715112686,-0.014940435998141766,0.025421390309929848
1045,816,-0.24383194744586945,-0.03263334557414055,-1000.010498046875,-0.07495150715112686,-0.014940435998141766,0.025421390309929848
1055,816,-0.24383194744586945,-0.03263334557414055,-1000.010498046875,-0.07495150715112686,-0.014940435998141766,0.025421390309929848
1075,816,-0.24383194744586945,-0.03263334557414055,-1000.010498046875,-0.07495150715112686,-0.014940435998141766,0.025421390309929848
993,816,-0.24383194744586945,-0.03263334557414055,-1000.010498046875,-0.07495150715112686,-0.014940435998141766,0.025421390309929848
976,816,-0.24383194744586945,-0.03263334557414055,-1000.010498046875,-0.07495150715112686,-0.014940435998141766,0.025421390309929848
986,816,-0.24383194744586945,-0.03263334557414055,-1000.010498046875,-0.07495150715112686,-0.014940435998141766,0.025421390309929848
1006,816,-0.24383194744586945,-0.03263334557414055,-1000.010498046875,-0.07495150715112686,-0.014940435998141766,0.025421390309929848
1063,817,-0.21156080067157745,-0.05075628682971001,-999.9854736328125,-0.007445845752954483,-0.021614640951156616,-0.01158441137522459
1051,817,-0.21156080067157745,-0.05075628682971001,-999.9854736328125,-0.007445845752954483,-0.021614640951156616,-0.01158441137522459
1050,817,-0.21156080067157745,-0.05075628682971001,-999.9854736328125,-0.007445845752954483,-0.021614640951156616,-0.01158441137522459
1060,817,-0.21156080067157745,-0.05075628682971001,-999.9854736328125,-0.007445845752954483,-0.021614640951156616,-0.01158441137522459
994,817,-0.21156080067157745,-0.05075628682971001,-999.9854736328125,-0.007445845752954483,-0.021614640951156616,-0.01158441137522459
982,817,-0.21156080067157745,-0.05075628682971001,-999.9854736328125,-0.007445845752954483,-0.021614640951156616,-0.01158441137522459
981,817,-0.21156080067157745,-0.05075628682971001,-999.9854736328125,-0.007445845752954483,-0.021614640951156616,-0.01158441137522459
991,817,-0.21156080067157745,-0.05075628682971001,-999.9854736328125,-0.007445845752954483,-0.021614640951156616,-0.01158441137522459
1075,818,-0.1388978511095047,0.025183631107211113,-999.97802734375,0.02785349451005459,0.023042164742946625,-0.017612271010875702
1055,818,-0.1388978511095047,0.025183631107211113,-999.97802734375,0.02785349451005459,0.023042164742946625,-0.017612271010875702
1044,818,-0.1388978511095047,0.025183631107211113,-999.97802734375,0.02785349451005459,0.023042164742946625,-0.017612271010875702
1064,818,-0.1388978511095047,0.025183631107211113,-999.97802734375,0.02785349451005459,0.023042164742946625,-0.017612271010875702
1006,818,-0.1388978511095047,0.025183631107211113,-999.97802734375,0.02785349451005459,0.023042164742946625,-0.017612271010875702
986,818,-0.1388978511095047,0.025183631107211113,-999.97802734375,0.02785349451005459,0.023042164742946625,-0.017612271010875702
975,818,-0.1388978511095047,0.025183631107211113,-999.97802734375,0.02785349451005459,0.023042164742946625,-0.017612271010875702
995,818,-0.1388978511095047,0.025183631107211113,-999.97802734375,0.02785349451005459,0.023042164742946625,-0.017612271010875702
1099,819,0.21242879331111908,0.2647078037261963,-999.9029541015625,0.26614928245544434,-0.06219965219497681,0.042895782738924026
1092,819,0.21242879331111908,0.2647078037261963,-999.9029541015625,0.26614928245544434,-0.06219965219497681,0.042895782738924026
1062,819,0.21242879331111908,0.2647078037261963,-999.9029541015625,0.26614928245544434,-0.06219965219497681,0.042895782738924026
1087,819,0.21242879331111908,0.2647078037261963,-999.9029541015625,0.26614928245544434,-0.06219965219497681,0.042895782738924026
1030,819,0.21242879331111908,0.2647078037261963,-999.9029541015625,0.26614928245544434,-0.06219965219497681,0.042895782738924026
1023,819,0.21242879331111908,0.2647078037261963,-999.9029541015625,0.26614928245544434,-0.06219965219497681,0.042895782738924026
993,819,0.21242879331111908,0.2647078037261963,-999.9029541015625,0.26614928245544434,-0.06219965219497681,0.042895782738924026
1018,819,0.21242879331111908,0.2647078037261963,-999.9029541015625,0.26614928245544434,-0.06219965219497681,0.042895782738924026
1064,820,-0.1964929699897766,-0.00011092347267549485,-1000.022216796875,0.07033312320709229,-0.006400599144399166,0.03511400520801544
1044,820,-0.1964929699897766,-0.00011092347267549485,-1000.022216796875,0.07033312320709229,-0.006400599144399166,0.03511400520801544
1043,820,-0.1964929699897766,-0.00011092347267549485,-1000.022216796875,0.07033312320709229,-0.006400599144399166,0.03511400520801544
1065,820,-0.1964929699897766,-0.00011092347267549485,-1000.022216796875,0.07033312320709229,-0.006400599144399166,0.03511400520801544
995,820,-0.1964929699897766,-0.00011092347267549485,-1000.022216796875,0.07033312320709229,-0.006400599144399166,0.03511400520801544
975,820,-0.1964929699897766,-0.00011092347267549485,-1000.022216796875,0.07033312320709229,-0.006400599144399166,0.03511400520801544
974,820,-0.1964929699897766,-0.00011092347267549485,-1000.022216796875,0.07033312320709229,-0.006400599144399166,0.03511400520801544
996,820,-0.1964929699897766,-0.00011092347267549485,-1000.022216796875,0.07033312320709229,-0.006400599144399166,0.03511400520801544
1065,821,-0.35041454434394836,-0.10245693475008011,-999.9740600585938,-0.04202108085155487,0.01005347166210413,-0.03120371326804161
1043,821,-0.35041454434394836,-0.10245693475008011,-999.9740600585938,-0.04202108085155487,0.01005347166210413,-0.03120371326804161
1042,821,-0.35041454434394836,-0.10245693475008011,-999.9740600585938,-0.04202108085155487,0.01005347166210413,-0.03120371326804161
1066,821,-0.35041454434394836,-0.10245693475008011,-999.9740600585938,-0.04202108085155487,0.01005347166210413,-0.03120371326804161
996,821,-0.35041454434394836,-0.10245693475008011,-999.9740600585938,-0.04202108085155487,0.01005347166210413,-0.03120371326804161
974,821,-0.35041454434394836,-0.10245693475008011,-999.9740600585938,-0.04202108085155487,0.01005347166210413,-0.03120371326804161
973,821,-0.35041454434394836,-0.10245693475008011,-999.9740600585938,-0.04202108085155487,0.01005347166210413,-0.03120371326804161
997,821,-0.35041454434394836,-0.10245693475008011,-999.9740600585938,-0.04202108085155487,0.01005347166210413,-0.03120371326804161
1096,822,0.15448181331157684,-0.352071076631546,-999.9022827148438,-0.09428881108760834,0.023471467196941376,-0.23496077954769135
1084,822,0.15448181331157684,-0.352071076631546,-999.9022827148438,-0.09428881108760834,0.023471467196941376,-0.23496077954769135
1095,822,0.15448181331157684,-0.352071076631546,-999.9022827148438,-0.09428881108760834,0.023471467196941376,-0.23496077954769135
1089,822,0.15448181331157684,-0.352071076631546,-999.9022827148438,-0.09428881108760834,0.023471467196941376,-0.23496077954769135
1027,822,0.15448181331157684,-0.352071076631546,-999.9022827148438,-0.09428881108760834,0.023471467196941376,-0.23496077954769135
1015,822,0.15448181331157684,-0.352071076631546,-999.9022827148438,-0.09428881108760834,0.023471467196941376,-0.23496077954769135
1026,822,0.15448181331157684,-0.352071076631546,-999.9022827148438,-0.09428881108760834,0.023471467196941376,-0.23496077954769135
1020,822,0.15448181331157684,-0.352071076631546,-999.9022827148438,-0.09428881108760834,0.023471467196941376,-0.23496077954769135
1051,823,-0.23699049651622772,-0.10268747061491013,-1000.009765625,-0.14590011537075043,-0.016228264197707176,0.03246729448437691
1063,823,-0.23699049651622772,-0.10268747061491013,-1000.009765625,-0.14590011537075043,-0.016228264197707176,0.03246729448437691
1071,823,-0.23699049651622772,-0.10268747061491013,-1000.009765625,-0.14590011537075043,-0.016228264197707176,0.03246729448437691
1036,823,-0.23699049651622772,-0.10268747061491013,-1000.009765625,-0.14590011537075043,-0.016228264197707176,0.03246729448437691
982,823,-0.23699049651622772,-0.10268747061491013,-1000.009765625,-0.14590011537075043,-0.016228264197707176,0.03246729448437691
994,823,-0.23699049651622772,-0.10268747061491013,-1000.009765625,-0.14590011537075043,-0.016228264197707176,0.03246729448437691
1002,823,-0.23699049651622772,-0.10268747061491013,-1000.009765625,-0.14590011537075043,-0.016228264197707176,0.03246729448437691
967,823,-0.23699049651622772,-0.10268747061491013,-1000.009765625,-0.14590011537075043,-0.016228264197707176,0.03246729448437691
1066,824,-0.29043033719062805,0.020617615431547165,-1000.023193359375,-0.01195209939032793,0.011682532727718353,0.0052152578718960285
1042,824,-0.29043033719062805,0.020617615431547165,-1000.023193359375,-0.01195209939032793,0.011682532727718353,0.0052152578718960285
1054,824,-0.29043033719062805,0.020617615431547165,-1000.023193359375,-0.01195209939032793,0.011682532727718353,0.0052152578718960285
1074,824,-0.29043033719062805,0.020617615431547165,-1000.023193359375,-0.01195209939032793,0.011682532727718353,0.0052152578718960285
997,824,-0.29043033719062805,0.020617615431547165,-1000.023193359375,-0.01195209939032793,0.011682532727718353,0.0052152578718960285
973,824,-0.29043033719062805,0.020617615431547165,-1000.023193359375,-0.01195209939032793,0.011682532727718353,0.0052152578718960285
985,824,-0.29043033719062805,0.020617615431547165,-1000.023193359375,-0.01195209939032793,0.011682532727718353,0.0052152578718960285
1005,824,-0.29043033719062805,0.020617615431547165,-1000.023193359375,-0.01195209939032793,0.011682532727718353,0.0052152578718960285
1074,825,-0.33217287063598633,-0.13158421218395233,-999.9721069335938,0.12584836781024933,0.005392452701926231,-0.02502746507525444
1054,825,-0.33217287063598633,-0.13158421218395233,-999.9721069335938,0.12584836781024933,0.005392452701926231,-0.02502746507525444
1041,825,-0.33217287063598633,-0.13158421218395233,-999.9721069335938,0.12584836781024933,0.005392452701926231,-0.02502746507525444
1067,825,-0.33217287063598633,-0.13158421218395233,-999.9721069335938,0.12584836781024933,0.005392452701926231,-0.02502746507525444
1005,825,-0.33217287063598633,-0.13158421218395233,-999.9721069335938,0.12584836781024933,0.005392452701926231,-0.02502746507525444
985,825,-0.33217287063598633,-0.13158421218395233,-999.9721069335938,0.12584836781024933,0.005392452701926231,-0.02502746507525444
972,825,-0.33217287063598633,-0.13158421218395233,-999.9721069335938,0.12584836781024933,0.005392452701926231,-0.02502746507525444
998,825,-0.33217287063598633,-0.13158421218395233,-999.9721069335938,0.12584836781024933,0.005392452701926231,-0.02502746507525444
1067,826,-0.20496691763401031,-0.34442806243896484,-1000.0307006835938,0.13679559528827667,0.005092692095786333,0.027669822797179222
1041,826,-0.20496691763401031,-0.34442806243896484,-1000.0307006835938,0.13679559528827667,0.005092692095786333,0.027669822797179222
1040,826,-0.20496691763401031,-0.34442806243896484,-1000.0307006835938,0.13679559528827667,0.005092692095786333,0.027669822797179222
1068,826,-0.20496691763401031,-0.34442806243896484,-1000.0307006835938,0.13679559528827667,0.005092692095786333,0.027669822797179222
998,826,-0.20496691763401031,-0.34442806243896484,-1000.0307006835938,0.13679559528827667,0.005092692095786333,0.027669822797179222
972,826,-0.20496691763401031,-0.34442806243896484,-1000.0307006835938,0.13679559528827667,0.005092692095786333,0.027669822797179222
971,826,-0.20496691763401031,-0.34442806243896484,-1000.0307006835938,0.13679559528827667,0.005092692095786333,0.027669822797179222
999,826,-0.20496691763401031,-0.34442806243896484,-1000.0307006835938,0.13679559528827667,0.005092692095786333,0.027669822797179222
1068,827,-0.03320835530757904,-0.2462003082036972,-999.9711303710938,0.007353688590228558,0.01724015735089779,-0.03534812480211258
1040,827,-0.03320835530757904,-0.2462003082036972,-999.9711303710938,0.007353688590228558,0.01724015735089779,-0.03534812480211258
1053,827,-0.03320835530757904,-0.2462003082036972,-999.9711303710938,0.007353688590228558,0.01724015735089779,-0.03534812480211258
1073,827,-0.03320835530757904,-0.2462003082036972,-999.9711303710938,0.007353688590228558,0.01724015735089779,-0.03534812480211258
999,827,-0.03320835530757904,-0.2462003082036972,-999.9711303710938,0.007353688590228558,0.01724015735089779,-0.03534812480211258
971,827,-0.03320835530757904,-0.2462003082036972,-999.9711303710938,0.007353688590228558,0.01724015735089779,-0.03534812480211258
984,827,-0.03320835530757904,-0.2462003082036972,-999.9711303710938,0.007353688590228558,0.01724015735089779,-0.03534812480211258
1004,827,-0.03320835530757904,-0.2462003082036972,-999.9711303710938,0.007353688590228558,0.01724015735089779,-0.03534812480211258
1073,828,-0.06917581707239151,-0.2093006819486618,-1000.016845703125,-0.04406391456723213,-0.009056160226464272,-0.01676338165998459
1053,828,-0.06917581707239151,-0.2093006819486618,-1000.016845703125,-0.04406391456723213,-0.009056160226464272,-0.01676338165998459
1039,828,-0.06917581707239151,-0.2093006819486618,-1000.016845703125,-0.04406391456723213,-0.009056160226464272,-0.01676338165998459
1069,828,-0.06917581707239151,-0.2093006819486618,-1000.016845703125,-0.04406391456723213,-0.009056160226464272,-0.01676338165998459
1004,828,-0.06917581707239151,-0.2093006819486618,-1000.016845703125,-0.04406391456723213,-0.009056160226464272,-0.01676338165998459
984,828,-0.06917581707239151,-0.2093006819486618,-1000.016845703125,-0.04406391456723213,-0.009056160226464272,-0.01676338165998459
970,828,-0.06917581707239151,-0.2093006819486618,-1000.016845703125,-0.04406391456723213,-0.009056160226464272,-0.01676338165998459
1000,828,-0.06917581707239151,-0.2093006819486618,-1000.016845703125,-0.04406391456723213,-0.009056160226464272,-0.01676338165998459
1093,829,-0.5146121382713318,-0.5355548858642578,-1000.0188598632812,-0.2205326408147812,0.009606179781258106,-0.0385473258793354
1038,829,-0.5146121382713318,-0.5355548858642578,-1000.0188598632812,-0.2205326408147812,0.009606179781258106,-0.0385473258793354
1037,829,-0.5146121382713318,-0.5355548858642578,-1000.0188598632812,-0.2205326408147812,0.009606179781258106,-0.0385473258793354
1094,829,-0.5146121382713318,-0.5355548858642578,-1000.0188598632812,-0.2205326408147812,0.009606179781258106,-0.0385473258793354
1024,829,-0.5146121382713318,-0.5355548858642578,-1000.0188598632812,-0.2205326408147812,0.009606179781258106,-0.0385473258793354
969,829,-0.5146121382713318,-0.5355548858642578,-1000.0188598632812,-0.2205326408147812,0.009606179781258106,-0.0385473258793354
968,829,-0.5146121382713318,-0.5355548858642578,-1000.0188598632812,-0.2205326408147812,0.009606179781258106,-0.0385473258793354
1025,829,-0.5146121382713318,-0.5355548858642578,-1000.0188598632812,-0.2205326408147812,0.009606179781258106,-0.0385473258793354
1072,830,-0.013948089443147182,-0.12672096490859985,-999.9891357421875,-0.0544041208922863,-0.010645094327628613,-0.030935928225517273
1052,830,-0.013948089443147182,-0.12672096490859985,-999.9891357421875,-0.0544041208922863,-0.010645094327628613,-0.030935928225517273
1036,830,-0.013948089443147182,-0.12672096490859985,-999.9891357421875,-0.0544041208922863,-0.010645094327628613,-0.030935928225517273
1071,830,-0.013948089443147182,-0.12672096490859985,-999.9891357421875,-0.0544041208922863,-0.010645094327628613,-0.030935928225517273
1003,830,-0.013948089443147182,-0.12672096490859985,-999.9891357421875,-0.0544041208922863,-0.010645094327628613,-0.030935928225517273
983,830,-0.013948089443147182,-0.12672096490859985,-999.9891357421875,-0.0544041208922863,-0.010645094327628613,-0.030935928225517273
967,830,-0.013948089443147182,-0.12672096490859985,-999.9891357421875,-0.0544041208922863,-0.010645094327628613,-0.030935928225517273
1002,830,-0.013948089443147182,-0.12672096490859985,-999.9891357421875,-0.0544041208922863,-0.010645094327628613,-0.030935928225517273
1095,831,0.703118622303009,0.877199113368988,-999.7422485351562,0.1485041081905365,-0.00937659665942192,0.06254895776510239
1071,831,0.703118622303009,0.877199113368988,-999.7422485351562,0.1485041081905365,-0.00937659665942192,0.06254895776510239
1063,831,0.703118622303009,0.877199113368988,-999.7422485351562,0.1485041081905365,-0.00937659665942192,0.06254895776510239
1078,831,0.703118622303009,0.877199113368988,-999.7422485351562,0.1485041081905365,-0.00937659665942192,0.06254895776510239
1026,831,0.703118622303009,0.877199113368988,-999.7422485351562,0.1485041081905365,-0.00937659665942192,0.06254895776510239
1002,831,0.703118622303009,0.877199113368988,-999.7422485351562,0.1485041081905365,-0.00937659665942192,0.06254895776510239
994,831,0.703118622303009,0.877199113368988,-999.7422485351562,0.1485041081905365,-0.00937659665942192,0.06254895776510239
1009,831,0.703118622303009,0.877199113368988,-999.7422485351562,0.1485041081905365,-0.00937659665942192,0.06254895776510239
1094,832,0.33150529861450195,0.7525826096534729,-999.8705444335938,0.09013479948043823,0.06554353982210159,0.026663223281502724
1072,832,0.33150529861450195,0.7525826096534729,-999.8705444335938,0.09013479948043823,0.06554353982210159,0.026663223281502724
1084,832,0.33150529861450195,0.7525826096534729,-999.8705444335938,0.09013479948043823,0.06554353982210159,0.026663223281502724
1070,832,0.33150529861450195,0.7525826096534729,-999.8705444335938,0.09013479948043823,0.06554353982210159,0.026663223281502724
1025,832,0.33150529861450195,0.7525826096534729,-999.8705444335938,0.09013479948043823,0.06554353982210159,0.026663223281502724
1003,832,0.33150529861450195,0.7525826096534729,-999.8705444335938,0.09013479948043823,0.06554353982210159,0.026663223281502724
1015,832,0.33150529861450195,0.7525826096534729,-999.8705444335938,0.09013479948043823,0.06554353982210159,0.026663223281502724
1001,832,0.33150529861450195,0.7525826096534729,-999.8705444335938,0.09013479948043823,0.06554353982210159,0.026663223281502724
1069,833,-0.20019298791885376,-0.3091874420642853,-999.9971923828125,-0.21384398639202118,0.013587594963610172,-0.0008781990618444979
1039,833,-0.20019298791885376,-0.3091874420642853,-999.9971923828125,-0.21384398639202118,0.013587594963610172,-0.0008781990618444979
1038,833,-0.20019298791885376,-0.3091874420642853,-999.9971923828125,-0.21384398639202118,0.013587594963610172,-0.0008781990618444979
1093,833,-0.20019298791885376,-0.3091874420642853,-999.9971923828125,-0.21384398639202118,0.013587594963610172,-0.0008781990618444979
1000,833,-0.20019298791885376,-0.3091874420642853,-999.9971923828125,-0.21384398639202118,0.013587594963610172,-0.0008781990618444979
970,833,-0.20019298791885376,-0.3091874420642853,-999.9971923828125,-0.21384398639202118,0.013587594963610172,-0.0008781990618444979
969,833,-0.20019298791885376,-0.3091874420642853,-999.9971923828125,-0.21384398639202118,0.013587594963610172,-0.0008781990618444979
1024,833,-0.20019298791885376,-0.3091874420642853,-999.9971923828125,-0.21384398639202118,0.013587594963610172,-0.0008781990618444979
1078,834,0.02892512083053589,-0.645058274269104,-1000.2935180664062,0.012082889676094055,0.18583720922470093,-0.19419550895690918
1063,834,0.02892512083053589,-0.645058274269104,-1000.2935180664062,0.012082889676094055,0.18583720922470093,-0.19419550895690918
1060,834,0.02892512083053589,-0.645058274269104,-1000.2935180664062,0.012082889676094055,0.18583720922470093,-0.19419550895690918
1104,834,0.02892512083053589,-0.645058274269104,-1000.2935180664062,0.012082889676094055,0.18583720922470093,-0.19419550895690918
1009,834,0.02892512083053589,-0.645058274269104,-1000.2935180664062,0.012082889676094055,0.18583720922470093,-0.19419550895690918
994,834,0.02892512083053589,-0.645058274269104,-1000.2935180664062,0.012082889676094055,0.18583720922470093,-0.19419550895690918
991,834,0.02892512083053589,-0.645058274269104,-1000.2935180664062,0.012082889676094055,0.18583720922470093,-0.19419550895690918
1035,834,0.02892512083053589,-0.645058274269104,-1000.2935180664062,0.012082889676094055,0.18583720922470093,-0.19419550895690918
1089,835,0.06307879090309143,0.20132897794246674,-999.9614868164062,0.2735196352005005,-0.024300530552864075,-0.07817567884922028
1104,835,0.06307879090309143,0.20132897794246674,-999.9614868164062,0.2735196352005005,-0.024300530552864075,-0.07817567884922028
1080,835,0.06307879090309143,0.20132897794246674,-999.9614868164062,0.2735196352005005,-0.024300530552864075,-0.07817567884922028
1088,835,0.06307879090309143,0.20132897794246674,-999.9614868164062,0.2735196352005005,-0.024300530552864075,-0.07817567884922028
1020,835,0.06307879090309143,0.20132897794246674,-999.9614868164062,0.2735196352005005,-0.024300530552864075,-0.07817567884922028
1035,835,0.06307879090309143,0.20132897794246674,-999.9614868164062,0.2735196352005005,-0.024300530552864075,-0.07817567884922028
1011,835,0.06307879090309143,0.20132897794246674,-999.9614868164062,0.2735196352005005,-0.024300530552864075,-0.07817567884922028
1019,835,0.06307879090309143,0.20132897794246674,-999.9614868164062,0.2735196352005005,-0.024300530552864075,-0.07817567884922028
1059,836,-0.037056148052215576,0.34730038046836853,-1000.2813110351562,-0.15495838224887848,0.04341178014874458,-0.14142635464668274
1076,836,-0.037056148052215576,0.34730038046836853,-1000.2813110351562,-0.15495838224887848,0.04341178014874458,-0.14142635464668274
1098,836,-0.037056148052215576,0.34730038046836853,-1000.2813110351562,-0.15495838224887848,0.04341178014874458,-0.14142635464668274
1083,836,-0.037056148052215576,0.34730038046836853,-1000.2813110351562,-0.15495838224887848,0.04341178014874458,-0.14142635464668274
990,836,-0.037056148052215576,0.34730038046836853,-1000.2813110351562,-0.15495838224887848,0.04341178014874458,-0.14142635464668274
1007,836,-0.037056148052215576,0.34730038046836853,-1000.2813110351562,-0.15495838224887848,0.04341178014874458,-0.14142635464668274
1029,836,-0.037056148052215576,0.34730038046836853,-1000.2813110351562,-0.15495838224887848,0.04341178014874458,-0.14142635464668274
1014,836,-0.037056148052215576,0.34730038046836853,-1000.2813110351562,-0.15495838224887848,0.04341178014874458,-0.14142635464668274
1083,837,0.12428483366966248,-0.5929190516471863,-999.9988403320312,-0.023519190028309822,-0.04133866727352142,0.1614571213722229
1098,837,0.12428483366966248,-0.5929190516471863,-999.9988403320312,-0.023519190028309822,-0.04133866727352142,0.1614571213722229
1082,837,0.12428483366966248,-0.5929190516471863,-999.9988403320312,-0.023519190028309822,-0.04133866727352142,0.1614571213722229
1088,837,0.12428483366966248,-0.5929190516471863,-999.9988403320312,-0.023519190028309822,-0.04133866727352142,0.1614571213722229
1014,837,0.12428483366966248,-0.5929190516471863,-999.9988403320312,-0.023519190028309822,-0.04133866727352142,0.1614571213722229
1029,837,0.12428483366966248,-0.5929190516471863,-999.9988403320312,-0.023519190028309822,-0.04133866727352142,0.1614571213722229
1013,837,0.12428483366966248,-0.5929190516471863,-999.9988403320312,-0.023519190028309822,-0.04133866727352142,0.1614571213722229
1019,837,0.12428483366966248,-0.5929190516471863,-999.9988403320312,-0.023519190028309822,-0.04133866727352142,0.1614571213722229
1085,838,0.40527352690696716,0.5229999423027039,-999.944091796875,0.16618041694164276,-0.013644308783113956,0.06383886188268661
1073,838,0.40527352690696716,0.5229999423027039,-999.944091796875,0.16618041694164276,-0.013644308783113956,0.06383886188268661
1069,838,0.40527352690696716,0.5229999423027039,-999.944091796875,0.16618041694164276,-0.013644308783113956,0.06383886188268661
1093,838,0.40527352690696716,0.5229999423027039,-999.944091796875,0.16618041694164276,-0.013644308783113956,0.06383886188268661
1016,838,0.40527352690696716,0.5229999423027039,-999.944091796875,0.16618041694164276,-0.013644308783113956,0.06383886188268661
1004,838,0.40527352690696716,0.5229999423027039,-999.944091796875,0.16618041694164276,-0.013644308783113956,0.06383886188268661
1000,838,0.40527352690696716,0.5229999423027039,-999.944091796875,0.16618041694164276,-0.013644308783113956,0.06383886188268661
1024,838,0.40527352690696716,0.5229999423027039,-999.944091796875,0.16618041694164276,-0.013644308783113956,0.06383886188268661
1083,839,-0.4042532742023468,-0.6598661541938782,-1000.0827026367188,0.08021439611911774,-0.13599522411823273,-0.03802961856126785
1088,839,-0.4042532742023468,-0.6598661541938782,-1000.0827026367188,0.08021439611911774,-0.13599522411823273,-0.03802961856126785
1080,839,-0.4042532742023468,-0.6598661541938782,-1000.0827026367188,0.08021439611911774,-0.13599522411823273,-0.03802961856126785
1097,839,-0.4042532742023468,-0.6598661541938782,-1000.0827026367188,0.08021439611911774,-0.13599522411823273,-0.03802961856126785
1014,839,-0.4042532742023468,-0.6598661541938782,-1000.0827026367188,0.08021439611911774,-0.13599522411823273,-0.03802961856126785
1019,839,-0.4042532742023468,-0.6598661541938782,-1000.0827026367188,0.08021439611911774,-0.13599522411823273,-0.03802961856126785
1011,839,-0.4042532742023468,-0.6598661541938782,-1000.0827026367188,0.08021439611911774,-0.13599522411823273,-0.03802961856126785
1028,839,-0.4042532742023468,-0.6598661541938782,-1000.0827026367188,0.08021439611911774,-0.13599522411823273,-0.03802961856126785
1061,840,0.20227889716625214,0.8967914581298828,-1000.0875244140625,-0.07126274704933167,-0.03239481523633003,-0.09134982526302338
1092,840,0.20227889716625214,0.8967914581298828,-1000.0875244140625,-0.07126274704933167,-0.03239481523633003,-0.09134982526302338
1099,840,0.20227889716625214,0.8967914581298828,-1000.0875244140625,-0.07126274704933167,-0.03239481523633003,-0.09134982526302338
1082,840,0.20227889716625214,0.8967914581298828,-1000.0875244140625,-0.07126274704933167,-0.03239481523633003,-0.09134982526302338
992,840,0.20227889716625214,0.8967914581298828,-1000.0875244140625,-0.07126274704933167,-0.03239481523633003,-0.09134982526302338
1023,840,0.20227889716625214,0.8967914581298828,-1000.0875244140625,-0.07126274704933167,-0.03239481523633003,-0.09134982526302338
1030,840,0.20227889716625214,0.8967914581298828,-1000.0875244140625,-0.07126274704933167,-0.03239481523633003,-0.09134982526302338
1013,840,0.20227889716625214,0.8967914581298828,-1000.0875244140625,-0.07126274704933167,-0.03239481523633003,-0.09134982526302338
1103,841,-0.4155908226966858,-0.4486108720302582,-999.98486328125,-0.1354924589395523,0.11998139321804047,-0.16771654784679413
1085,841,-0.4155908226966858,-0.4486108720302582,-999.98486328125,-0.1354924589395523,0.11998139321804047,-0.16771654784679413
1070,841,-0.4155908226966858,-0.4486108720302582,-999.98486328125,-0.1354924589395523,0.11998139321804047,-0.16771654784679413
1091,841,-0.4155908226966858,-0.4486108720302582,-999.98486328125,-0.1354924589395523,0.11998139321804047,-0.16771654784679413
1034,841,-0.4155908226966858,-0.4486108720302582,-999.98486328125,-0.1354924589395523,0.11998139321804047,-0.16771654784679413
1016,841,-0.4155908226966858,-0.4486108720302582,-999.98486328125,-0.1354924589395523,0.11998139321804047,-0.16771654784679413
1001,841,-0.4155908226966858,-0.4486108720302582,-999.98486328125,-0.1354924589395523,0.11998139321804047,-0.16771654784679413
1022,841,-0.4155908226966858,-0.4486108720302582,-999.98486328125,-0.1354924589395523,0.11998139321804047,-0.16771654784679413
1079,842,-0.7033935785293579,0.09525260329246521,-1000.0217895507812,-0.021851368248462677,0.10603157430887222,0.0465536043047905
1101,842,-0.7033935785293579,0.09525260329246521,-1000.0217895507812,-0.021851368248462677,0.10603157430887222,0.0465536043047905
1086,842,-0.7033935785293579,0.09525260329246521,-1000.0217895507812,-0.021851368248462677,0.10603157430887222,0.0465536043047905
1090,842,-0.7033935785293579,0.09525260329246521,-1000.0217895507812,-0.021851368248462677,0.10603157430887222,0.0465536043047905
1010,842,-0.7033935785293579,0.09525260329246521,-1000.0217895507812,-0.021851368248462677,0.10603157430887222,0.0465536043047905
1032,842,-0.7033935785293579,0.09525260329246521,-1000.0217895507812,-0.021851368248462677,0.10603157430887222,0.0465536043047905
1017,842,-0.7033935785293579,0.09525260329246521,-1000.0217895507812,-0.021851368248462677,0.10603157430887222,0.0465536043047905
1021,842,-0.7033935785293579,0.09525260329246521,-1000.0217895507812,-0.021851368248462677,0.10603157430887222,0.0465536043047905
1102,843,-0.11292289197444916,-0.16225162148475647,-1000.1141967773438,-0.4293294847011566,-0.09608891606330872,0.0339786596596241
1074,843,-0.11292289197444916,-0.16225162148475647,-1000.1141967773438,-0.4293294847011566,-0.09608891606330872,0.0339786596596241
1067,843,-0.11292289197444916,-0.16225162148475647,-1000.1141967773438,-0.4293294847011566,-0.09608891606330872,0.0339786596596241
1081,843,-0.11292289197444916,-0.16225162148475647,-1000.1141967773438,-0.4293294847011566,-0.09608891606330872,0.0339786596596241
1033,843,-0.11292289197444916,-0.16225162148475647,-1000.1141967773438,-0.4293294847011566,-0.09608891606330872,0.0339786596596241
1005,843,-0.11292289197444916,-0.16225162148475647,-1000.1141967773438,-0.4293294847011566,-0.09608891606330872,0.0339786596596241
998,843,-0.11292289197444916,-0.16225162148475647,-1000.1141967773438,-0.4293294847011566,-0.09608891606330872,0.0339786596596241
1012,843,-0.11292289197444916,-0.16225162148475647,-1000.1141967773438,-0.4293294847011566,-0.09608891606330872,0.0339786596596241
1091,844,0.21415159106254578,-0.20974750816822052,-1000.0175170898438,0.2369770109653473,-0.03284589573740959,0.111515574157238
1090,844,0.21415159106254578,-0.20974750816822052,-1000.0175170898438,0.2369770109653473,-0.03284589573740959,0.111515574157238
1081,844,0.21415159106254578,-0.20974750816822052,-1000.0175170898438,0.2369770109653473,-0.03284589573740959,0.111515574157238
1103,844,0.21415159106254578,-0.20974750816822052,-1000.0175170898438,0.2369770109653473,-0.03284589573740959,0.111515574157238
1022,844,0.21415159106254578,-0.20974750816822052,-1000.0175170898438,0.2369770109653473,-0.03284589573740959,0.111515574157238
1021,844,0.21415159106254578,-0.20974750816822052,-1000.0175170898438,0.2369770109653473,-0.03284589573740959,0.111515574157238
1012,844,0.21415159106254578,-0.20974750816822052,-1000.0175170898438,0.2369770109653473,-0.03284589573740959,0.111515574157238
1034,844,0.21415159106254578,-0.20974750816822052,-1000.0175170898438,0.2369770109653473,-0.03284589573740959,0.111515574157238
1091,845,0.07317647337913513,0.47088122367858887,-999.96240234375,-0.011057409457862377,0.2923387289047241,0.08957329392433167
1096,845,0.07317647337913513,0.47088122367858887,-999.96240234375,-0.011057409457862377,0.2923387289047241,0.08957329392433167
1089,845,0.07317647337913513,0.47088122367858887,-999.96240234375,-0.011057409457862377,0.2923387289047241,0.08957329392433167
1088,845,0.07317647337913513,0.47088122367858887,-999.96240234375,-0.011057409457862377,0.2923387289047241,0.08957329392433167
1022,845,0.07317647337913513,0.47088122367858887,-999.96240234375,-0.011057409457862377,0.2923387289047241,0.08957329392433167
1027,845,0.07317647337913513,0.47088122367858887,-999.96240234375,-0.011057409457862377,0.2923387289047241,0.08957329392433167
1020,845,0.07317647337913513,0.47088122367858887,-999.96240234375,-0.011057409457862377,0.2923387289047241,0.08957329392433167
1019,845,0.07317647337913513,0.47088122367858887,-999.96240234375,-0.011057409457862377,0.2923387289047241,0.08957329392433167
1081,846,-0.6195029020309448,-0.37890493869781494,-1000.0111694335938,0.07645687460899353,0.10864322632551193,-0.18220627307891846
1090,846,-0.6195029020309448,-0.37890493869781494,-1000.0111694335938,0.07645687460899353,0.10864322632551193,-0.18220627307891846
1086,846,-0.6195029020309448,-0.37890493869781494,-1000.0111694335938,0.07645687460899353,0.10864322632551193,-0.18220627307891846
1102,846,-0.6195029020309448,-0.37890493869781494,-1000.0111694335938,0.07645687460899353,0.10864322632551193,-0.18220627307891846
1012,846,-0.6195029020309448,-0.37890493869781494,-1000.0111694335938,0.07645687460899353,0.10864322632551193,-0.18220627307891846
1021,846,-0.6195029020309448,-0.37890493869781494,-1000.0111694335938,0.07645687460899353,0.10864322632551193,-0.18220627307891846
1017,846,-0.6195029020309448,-0.37890493869781494,-1000.0111694335938,0.07645687460899353,0.10864322632551193,-0.18220627307891846
1033,846,-0.6195029020309448,-0.37890493869781494,-1000.0111694335938,0.07645687460899353,0.10864322632551193,-0.18220627307891846
1092,847,-0.15542632341384888,-0.4092117249965668,-999.9888916015625,-0.13470903038978577,0.01322866976261139,-0.006679272744804621
1046,847,-0.15542632341384888,-0.4092117249965668,-999.9888916015625,-0.13470903038978577,0.01322866976261139,-0.006679272744804621
1045,847,-0.15542632341384888,-0.4092117249965668,-999.9888916015625,-0.13470903038978577,0.01322866976261139,-0.006679272744804621
1062,847,-0.15542632341384888,-0.4092117249965668,-999.9888916015625,-0.13470903038978577,0.01322866976261139,-0.006679272744804621
1023,847,-0.15542632341384888,-0.4092117249965668,-999.9888916015625,-0.13470903038978577,0.01322866976261139,-0.006679272744804621
977,847,-0.15542632341384888,-0.4092117249965668,-999.9888916015625,-0.13470903038978577,0.01322866976261139,-0.006679272744804621
976,847,-0.15542632341384888,-0.4092117249965668,-999.9888916015625,-0.13470903038978577,0.01322866976261139,-0.006679272744804621
993,847,-0.15542632341384888,-0.4092117249965668,-999.9888916015625,-0.13470903038978577,0.01322866976261139,-0.006679272744804621
1094,848,-0.16161736845970154,-0.3571183979511261,-1000.0089721679688,-0.19005551934242249,-0.0383695550262928,0.026896892115473747
1037,848,-0.16161736845970154,-0.3571183979511261,-1000.0089721679688,-0.19005551934242249,-0.0383695550262928,0.026896892115473747
1052,848,-0.16161736845970154,-0.3571183979511261,-1000.0089721679688,-0.19005551934242249,-0.0383695550262928,0.026896892115473747
1072,848,-0.16161736845970154,-0.3571183979511261,-1000.0089721679688,-0.19005551934242249,-0.0383695550262928,0.026896892115473747
1025,848,-0.16161736845970154,-0.3571183979511261,-1000.0089721679688,-0.19005551934242249,-0.0383695550262928,0.026896892115473747
968,848,-0.16161736845970154,-0.3571183979511261,-1000.0089721679688,-0.19005551934242249,-0.0383695550262928,0.026896892115473747
983,848,-0.16161736845970154,-0.3571183979511261,-1000.0089721679688,-0.19005551934242249,-0.0383695550262928,0.026896892115473747
1003,848,-0.16161736845970154,-0.3571183979511261,-1000.0089721679688,-0.19005551934242249,-0.0383695550262928,0.026896892115473747
1071,849,-0.19692941009998322,-0.2098497897386551,-1000.1647338867188,0.1788073033094406,0.13183386623859406,-0.018498137593269348
1095,849,-0.19692941009998322,-0.2098497897386551,-1000.1647338867188,0.1788073033094406,0.13183386623859406,-0.018498137593269348
1084,849,-0.19692941009998322,-0.2098497897386551,-1000.1647338867188,0.1788073033094406,0.13183386623859406,-0.018498137593269348
1072,849,-0.19692941009998322,-0.2098497897386551,-1000.1647338867188,0.1788073033094406,0.13183386623859406,-0.018498137593269348
1002,849,-0.19692941009998322,-0.2098497897386551,-1000.1647338867188,0.1788073033094406,0.13183386623859406,-0.018498137593269348
1026,849,-0.19692941009998322,-0.2098497897386551,-1000.1647338867188,0.1788073033094406,0.13183386623859406,-0.018498137593269348
1015,849,-0.19692941009998322,-0.2098497897386551,-1000.1647338867188,0.1788073033094406,0.13183386623859406,-0.018498137593269348
1003,849,-0.19692941009998322,-0.2098497897386551,-1000.1647338867188,0.1788073033094406,0.13183386623859406,-0.018498137593269348
1095,850,-0.6184089779853821,-0.36833110451698303,-1000.1090087890625,-0.2408682405948639,-0.32377147674560547,0.17584700882434845
1078,850,-0.6184089779853821,-0.36833110451698303,-1000.1090087890625,-0.2408682405948639,-0.32377147674560547,0.17584700882434845
1104,850,-0.6184089779853821,-0.36833110451698303,-1000.1090087890625,-0.2408682405948639,-0.32377147674560547,0.17584700882434845
1089,850,-0.6184089779853821,-0.36833110451698303,-1000.1090087890625,-0.2408682405948639,-0.32377147674560547,0.17584700882434845
1026,850,-0.6184089779853821,-0.36833110451698303,-1000.1090087890625,-0.2408682405948639,-0.32377147674560547,0.17584700882434845
1009,850,-0.6184089779853821,-0.36833110451698303,-1000.1090087890625,-0.2408682405948639,-0.32377147674560547,0.17584700882434845
1035,850,-0.6184089779853821,-0.36833110451698303,-1000.1090087890625,-0.2408682405948639,-0.32377147674560547,0.17584700882434845
1020,850,-0.6184089779853821,-0.36833110451698303,-1000.1090087890625,-0.2408682405948639,-0.32377147674560547,0.17584700882434845
1097,851,0.37833115458488464,1.1104776859283447,-999.6312255859375,0.06502674520015717,0.11708716303110123,0.12155522406101227
1058,851,0.37833115458488464,1.1104776859283447,-999.6312255859375,0.06502674520015717,0.11708716303110123,0.12155522406101227
1059,851,0.37833115458488464,1.1104776859283447,-999.6312255859375,0.06502674520015717,0.11708716303110123,0.12155522406101227
1083,851,0.37833115458488464,1.1104776859283447,-999.6312255859375,0.06502674520015717,0.11708716303110123,0.12155522406101227
1028,851,0.37833115458488464,1.1104776859283447,-999.6312255859375,0.06502674520015717,0.11708716303110123,0.12155522406101227
989,851,0.37833115458488464,1.1104776859283447,-999.6312255859375,0.06502674520015717,0.11708716303110123,0.12155522406101227
990,851,0.37833115458488464,1.1104776859283447,-999.6312255859375,0.06502674520015717,0.11708716303110123,0.12155522406101227
1014,851,0.37833115458488464,1.1104776859283447,-999.6312255859375,0.06502674520015717,0.11708716303110123,0.12155522406101227
1098,852,0.24338488280773163,0.6989918351173401,-999.7831420898438,0.13373419642448425,-0.019154073670506477,-0.03319583460688591
1076,852,0.24338488280773163,0.6989918351173401,-999.7831420898438,0.13373419642448425,-0.019154073670506477,-0.03319583460688591
1061,852,0.24338488280773163,0.6989918351173401,-999.7831420898438,0.13373419642448425,-0.019154073670506477,-0.03319583460688591
1082,852,0.24338488280773163,0.6989918351173401,-999.7831420898438,0.13373419642448425,-0.019154073670506477,-0.03319583460688591
1029,852,0.24338488280773163,0.6989918351173401,-999.7831420898438,0.13373419642448425,-0.019154073670506477,-0.03319583460688591
1007,852,0.24338488280773163,0.6989918351173401,-999.7831420898438,0.13373419642448425,-0.019154073670506477,-0.03319583460688591
992,852,0.24338488280773163,0.6989918351173401,-999.7831420898438,0.13373419642448425,-0.019154073670506477,-0.03319583460688591
1013,852,0.24338488280773163,0.6989918351173401,-999.7831420898438,0.13373419642448425,-0.019154073670506477,-0.03319583460688591
1100,853,0.2396032065153122,-0.22204670310020447,-1000.01513671875,-0.017751161009073257,-0.16999998688697815,0.025980889797210693
1075,853,0.2396032065153122,-0.22204670310020447,-1000.01513671875,-0.017751161009073257,-0.16999998688697815,0.025980889797210693
1064,853,0.2396032065153122,-0.22204670310020447,-1000.01513671875,-0.017751161009073257,-0.16999998688697815,0.025980889797210693
1079,853,0.2396032065153122,-0.22204670310020447,-1000.01513671875,-0.017751161009073257,-0.16999998688697815,0.025980889797210693
1031,853,0.2396032065153122,-0.22204670310020447,-1000.01513671875,-0.017751161009073257,-0.16999998688697815,0.025980889797210693
1006,853,0.2396032065153122,-0.22204670310020447,-1000.01513671875,-0.017751161009073257,-0.16999998688697815,0.025980889797210693
995,853,0.2396032065153122,-0.22204670310020447,-1000.01513671875,-0.017751161009073257,-0.16999998688697815,0.025980889797210693
1010,853,0.2396032065153122,-0.22204670310020447,-1000.01513671875,-0.017751161009073257,-0.16999998688697815,0.025980889797210693
1101,854,0.38145744800567627,-0.21001982688903809,-1000.1043090820312,-0.15408824384212494,-0.16981141269207,0.04102357476949692
1065,854,0.38145744800567627,-0.21001982688903809,-1000.1043090820312,-0.15408824384212494,-0.16981141269207,0.04102357476949692
1066,854,0.38145744800567627,-0.21001982688903809,-1000.1043090820312,-0.15408824384212494,-0.16981141269207,0.04102357476949692
1086,854,0.38145744800567627,-0.21001982688903809,-1000.1043090820312,-0.15408824384212494,-0.16981141269207,0.04102357476949692
1032,854,0.38145744800567627,-0.21001982688903809,-1000.1043090820312,-0.15408824384212494,-0.16981141269207,0.04102357476949692
996,854,0.38145744800567627,-0.21001982688903809,-1000.1043090820312,-0.15408824384212494,-0.16981141269207,0.04102357476949692
997,854,0.38145744800567627,-0.21001982688903809,-1000.1043090820312,-0.15408824384212494,-0.16981141269207,0.04102357476949692
1017,854,0.38145744800567627,-0.21001982688903809,-1000.1043090820312,-0.15408824384212494,-0.16981141269207,0.04102357476949692
1103,855,-0.30749645829200745,0.018594658002257347,-1000.083251953125,-0.15671423077583313,-0.05178547278046608,0.07308483123779297
1068,855,-0.30749645829200745,0.018594658002257347,-1000.083251953125,-0.15671423077583313,-0.05178547278046608,0.07308483123779297
1073,855,-0.30749645829200745,0.018594658002257347,-1000.083251953125,-0.15671423077583313,-0.05178547278046608,0.07308483123779297
1085,855,-0.30749645829200745,0.018594658002257347,-1000.083251953125,-0.15671423077583313,-0.05178547278046608,0.07308483123779297
1034,855,-0.30749645829200745,0.018594658002257347,-1000.083251953125,-0.15671423077583313,-0.05178547278046608,0.07308483123779297
999,855,-0.30749645829200745,0.018594658002257347,-1000.083251953125,-0.15671423077583313,-0.05178547278046608,0.07308483123779297
1004,855,-0.30749645829200745,0.018594658002257347,-1000.083251953125,-0.15671423077583313,-0.05178547278046608,0.07308483123779297
1016,855,-0.30749645829200745,0.018594658002257347,-1000.083251953125,-0.15671423077583313,-0.05178547278046608,0.07308483123779297
1128,856,0.0807936042547226,0.5069625377655029,-999.994140625,0.018270084634423256,0.023926008492708206,0.01292354241013527
1117,856,0.0807936042547226,0.5069625377655029,-999.994140625,0.018270084634423256,0.023926008492708206,0.01292354241013527
1116,856,0.0807936042547226,0.5069625377655029,-999.994140625,0.018270084634423256,0.023926008492708206,0.01292354241013527
1145,856,0.0807936042547226,0.5069625377655029,-999.994140625,0.018270084634423256,0.023926008492708206,0.01292354241013527
1059,856,0.0807936042547226,0.5069625377655029,-999.994140625,0.018270084634423256,0.023926008492708206,0.01292354241013527
1048,856,0.0807936042547226,0.5069625377655029,-999.994140625,0.018270084634423256,0.023926008492708206,0.01292354241013527
1047,856,0.0807936042547226,0.5069625377655029,-999.994140625,0.018270084634423256,0.023926008492708206,0.01292354241013527
1076,856,0.0807936042547226,0.5069625377655029,-999.994140625,0.018270084634423256,0.023926008492708206,0.01292354241013527
1145,857,0.17023997008800507,0.5688720941543579,-1000.01513671875,-0.05678778141736984,-0.010018653236329556,-0.04618223384022713
1116,857,0.17023997008800507,0.5688720941543579,-1000.01513671875,-0.05678778141736984,-0.010018653236329556,-0.04618223384022713
1125,857,0.17023997008800507,0.5688720941543579,-1000.01513671875,-0.05678778141736984,-0.010018653236329556,-0.04618223384022713
1130,857,0.17023997008800507,0.5688720941543579,-1000.01513671875,-0.05678778141736984,-0.010018653236329556,-0.04618223384022713
1076,857,0.17023997008800507,0.5688720941543579,-1000.01513671875,-0.05678778141736984,-0.010018653236329556,-0.04618223384022713
1047,857,0.17023997008800507,0.5688720941543579,-1000.01513671875,-0.05678778141736984,-0.010018653236329556,-0.04618223384022713
1056,857,0.17023997008800507,0.5688720941543579,-1000.01513671875,-0.05678778141736984,-0.010018653236329556,-0.04618223384022713
1061,857,0.17023997008800507,0.5688720941543579,-1000.01513671875,-0.05678778141736984,-0.010018653236329556,-0.04618223384022713
1126,858,0.11591183394193649,0.08579583466053009,-999.9999389648438,-0.06600846350193024,0.024466702714562416,-0.030675647780299187
1146,858,0.11591183394193649,0.08579583466053009,-999.9999389648438,-0.06600846350193024,0.024466702714562416,-0.030675647780299187
1129,858,0.11591183394193649,0.08579583466053009,-999.9999389648438,-0.06600846350193024,0.024466702714562416,-0.030675647780299187
1119,858,0.11591183394193649,0.08579583466053009,-999.9999389648438,-0.06600846350193024,0.024466702714562416,-0.030675647780299187
1057,858,0.11591183394193649,0.08579583466053009,-999.9999389648438,-0.06600846350193024,0.024466702714562416,-0.030675647780299187
1077,858,0.11591183394193649,0.08579583466053009,-999.9999389648438,-0.06600846350193024,0.024466702714562416,-0.030675647780299187
1060,858,0.11591183394193649,0.08579583466053009,-999.9999389648438,-0.06600846350193024,0.024466702714562416,-0.030675647780299187
1050,858,0.11591183394193649,0.08579583466053009,-999.9999389648438,-0.06600846350193024,0.024466702714562416,-0.030675647780299187
1117,859,0.1849392056465149,0.6028364300727844,-999.983642578125,-0.10707706958055496,0.01828024908900261,-0.027775578200817108
1128,859,0.1849392056465149,0.6028364300727844,-999.983642578125,-0.10707706958055496,0.01828024908900261,-0.027775578200817108
1127,859,0.1849392056465149,0.6028364300727844,-999.983642578125,-0.10707706958055496,0.01828024908900261,-0.027775578200817108
1118,859,0.1849392056465149,0.6028364300727844,-999.983642578125,-0.10707706958055496,0.01828024908900261,-0.027775578200817108
1048,859,0.1849392056465149,0.6028364300727844,-999.983642578125,-0.10707706958055496,0.01828024908900261,-0.027775578200817108
1059,859,0.1849392056465149,0.6028364300727844,-999.983642578125,-0.10707706958055496,0.01828024908900261,-0.027775578200817108
1058,859,0.1849392056465149,0.6028364300727844,-999.983642578125,-0.10707706958055496,0.01828024908900261,-0.027775578200817108
1049,859,0.1849392056465149,0.6028364300727844,-999.983642578125,-0.10707706958055496,0.01828024908900261,-0.027775578200817108
1156,860,0.1915690004825592,0.13744069635868073,-999.9944458007812,0.13531775772571564,-0.06283628940582275,-0.1442689299583435
1169,860,0.1915690004825592,0.13744069635868073,-999.9944458007812,0.13531775772571564,-0.06283628940582275,-0.1442689299583435
1148,860,0.1915690004825592,0.13744069635868073,-999.9944458007812,0.13531775772571564,-0.06283628940582275,-0.1442689299583435
1159,860,0.1915690004825592,0.13744069635868073,-999.9944458007812,0.13531775772571564,-0.06283628940582275,-0.1442689299583435
1087,860,0.1915690004825592,0.13744069635868073,-999.9944458007812,0.13531775772571564,-0.06283628940582275,-0.1442689299583435
1100,860,0.1915690004825592,0.13744069635868073,-999.9944458007812,0.13531775772571564,-0.06283628940582275,-0.1442689299583435
1079,860,0.1915690004825592,0.13744069635868073,-999.9944458007812,0.13531775772571564,-0.06283628940582275,-0.1442689299583435
1090,860,0.1915690004825592,0.13744069635868073,-999.9944458007812,0.13531775772571564,-0.06283628940582275,-0.1442689299583435
1172,861,-0.6761534810066223,-0.7915615439414978,-1000.1223754882812,0.005087146069854498,-0.00010023856157204136,0.03607660159468651
1150,861,-0.6761534810066223,-0.7915615439414978,-1000.1223754882812,0.005087146069854498,-0.00010023856157204136,0.03607660159468651
1136,861,-0.6761534810066223,-0.7915615439414978,-1000.1223754882812,0.005087146069854498,-0.00010023856157204136,0.03607660159468651
1137,861,-0.6761534810066223,-0.7915615439414978,-1000.1223754882812,0.005087146069854498,-0.00010023856157204136,0.03607660159468651
1103,861,-0.6761534810066223,-0.7915615439414978,-1000.1223754882812,0.005087146069854498,-0.00010023856157204136,0.03607660159468651
1081,861,-0.6761534810066223,-0.7915615439414978,-1000.1223754882812,0.005087146069854498,-0.00010023856157204136,0.03607660159468651
1067,861,-0.6761534810066223,-0.7915615439414978,-1000.1223754882812,0.005087146069854498,-0.00010023856157204136,0.03607660159468651
1068,861,-0.6761534810066223,-0.7915615439414978,-1000.1223754882812,0.005087146069854498,-0.00010023856157204136,0.03607660159468651
1160,862,-0.3244999647140503,-0.45629310607910156,-1000.0549926757812,0.1282646358013153,0.1431388407945633,0.0957871824502945
1157,862,-0.3244999647140503,-0.45629310607910156,-1000.0549926757812,0.1282646358013153,0.1431388407945633,0.0957871824502945
1156,862,-0.3244999647140503,-0.45629310607910156,-1000.0549926757812,0.1282646358013153,0.1431388407945633,0.0957871824502945
1159,862,-0.3244999647140503,-0.45629310607910156,-1000.0549926757812,0.1282646358013153,0.1431388407945633,0.0957871824502945
1091,862,-0.3244999647140503,-0.45629310607910156,-1000.0549926757812,0.1282646358013153,0.1431388407945633,0.0957871824502945
1088,862,-0.3244999647140503,-0.45629310607910156,-1000.0549926757812,0.1282646358013153,0.1431388407945633,0.0957871824502945
1087,862,-0.3244999647140503,-0.45629310607910156,-1000.0549926757812,0.1282646358013153,0.1431388407945633,0.0957871824502945
1090,862,-0.3244999647140503,-0.45629310607910156,-1000.0549926757812,0.1282646358013153,0.1431388407945633,0.0957871824502945
1151,863,0.4753413498401642,0.8499920964241028,-999.9067993164062,0.08448762446641922,-0.1219622865319252,-0.05805208906531334
1168,863,0.4753413498401642,0.8499920964241028,-999.9067993164062,0.08448762446641922,-0.1219622865319252,-0.05805208906531334
1156,863,0.4753413498401642,0.8499920964241028,-999.9067993164062,0.08448762446641922,-0.1219622865319252,-0.05805208906531334
1157,863,0.4753413498401642,0.8499920964241028,-999.9067993164062,0.08448762446641922,-0.1219622865319252,-0.05805208906531334
1082,863,0.4753413498401642,0.8499920964241028,-999.9067993164062,0.08448762446641922,-0.1219622865319252,-0.05805208906531334
1099,863,0.4753413498401642,0.8499920964241028,-999.9067993164062,0.08448762446641922,-0.1219622865319252,-0.05805208906531334
1087,863,0.4753413498401642,0.8499920964241028,-999.9067993164062,0.08448762446641922,-0.1219622865319252,-0.05805208906531334
1088,863,0.4753413498401642,0.8499920964241028,-999.9067993164062,0.08448762446641922,-0.1219622865319252,-0.05805208906531334
1131,864,-0.2414873093366623,-0.24945546686649323,-999.937744140625,-0.12404891848564148,-0.12727050483226776,0.13501983880996704
1144,864,-0.2414873093366623,-0.24945546686649323,-999.937744140625,-0.12404891848564148,-0.12727050483226776,0.13501983880996704
1169,864,-0.2414873093366623,-0.24945546686649323,-999.937744140625,-0.12404891848564148,-0.12727050483226776,0.13501983880996704
1156,864,-0.2414873093366623,-0.24945546686649323,-999.937744140625,-0.12404891848564148,-0.12727050483226776,0.13501983880996704
1062,864,-0.2414873093366623,-0.24945546686649323,-999.937744140625,-0.12404891848564148,-0.12727050483226776,0.13501983880996704
1075,864,-0.2414873093366623,-0.24945546686649323,-999.937744140625,-0.12404891848564148,-0.12727050483226776,0.13501983880996704
1100,864,-0.2414873093366623,-0.24945546686649323,-999.937744140625,-0.12404891848564148,-0.12727050483226776,0.13501983880996704
1087,864,-0.2414873093366623,-0.24945546686649323,-999.937744140625,-0.12404891848564148,-0.12727050483226776,0.13501983880996704
1171,865,-1.0619118213653564,-0.5002492070198059,-1000.1461791992188,-0.2545623481273651,-0.0327194519340992,-0.09217007458209991
1155,865,-1.0619118213653564,-0.5002492070198059,-1000.1461791992188,-0.2545623481273651,-0.0327194519340992,-0.09217007458209991
1135,865,-1.0619118213653564,-0.5002492070198059,-1000.1461791992188,-0.2545623481273651,-0.0327194519340992,-0.09217007458209991
1143,865,-1.0619118213653564,-0.5002492070198059,-1000.1461791992188,-0.2545623481273651,-0.0327194519340992,-0.09217007458209991
1102,865,-1.0619118213653564,-0.5002492070198059,-1000.1461791992188,-0.2545623481273651,-0.0327194519340992,-0.09217007458209991
1086,865,-1.0619118213653564,-0.5002492070198059,-1000.1461791992188,-0.2545623481273651,-0.0327194519340992,-0.09217007458209991
1066,865,-1.0619118213653564,-0.5002492070198059,-1000.1461791992188,-0.2545623481273651,-0.0327194519340992,-0.09217007458209991
1074,865,-1.0619118213653564,-0.5002492070198059,-1000.1461791992188,-0.2545623481273651,-0.0327194519340992,-0.09217007458209991
1165,866,0.3129673898220062,0.5047545433044434,-999.8338012695312,0.12515807151794434,0.3634880781173706,-0.21219712495803833
1160,866,0.3129673898220062,0.5047545433044434,-999.8338012695312,0.12515807151794434,0.3634880781173706,-0.21219712495803833
1139,866,0.3129673898220062,0.5047545433044434,-999.8338012695312,0.12515807151794434,0.3634880781173706,-0.21219712495803833
1153,866,0.3129673898220062,0.5047545433044434,-999.8338012695312,0.12515807151794434,0.3634880781173706,-0.21219712495803833
1096,866,0.3129673898220062,0.5047545433044434,-999.8338012695312,0.12515807151794434,0.3634880781173706,-0.21219712495803833
1091,866,0.3129673898220062,0.5047545433044434,-999.8338012695312,0.12515807151794434,0.3634880781173706,-0.21219712495803833
1070,866,0.3129673898220062,0.5047545433044434,-999.8338012695312,0.12515807151794434,0.3634880781173706,-0.21219712495803833
1084,866,0.3129673898220062,0.5047545433044434,-999.8338012695312,0.12515807151794434,0.3634880781173706,-0.21219712495803833
1139,867,-0.48047003149986267,-0.2507975697517395,-999.9795532226562,-0.3260471522808075,0.011766444891691208,0.0038948622532188892
1154,867,-0.48047003149986267,-0.2507975697517395,-999.9795532226562,-0.3260471522808075,0.011766444891691208,0.0038948622532188892
1162,867,-0.48047003149986267,-0.2507975697517395,-999.9795532226562,-0.3260471522808075,0.011766444891691208,0.0038948622532188892
1163,867,-0.48047003149986267,-0.2507975697517395,-999.9795532226562,-0.3260471522808075,0.011766444891691208,0.0038948622532188892
1070,867,-0.48047003149986267,-0.2507975697517395,-999.9795532226562,-0.3260471522808075,0.011766444891691208,0.0038948622532188892
1085,867,-0.48047003149986267,-0.2507975697517395,-999.9795532226562,-0.3260471522808075,0.011766444891691208,0.0038948622532188892
1093,867,-0.48047003149986267,-0.2507975697517395,-999.9795532226562,-0.3260471522808075,0.011766444891691208,0.0038948622532188892
1094,867,-0.48047003149986267,-0.2507975697517395,-999.9795532226562,-0.3260471522808075,0.011766444891691208,0.0038948622532188892
1146,868,-0.026431281119585037,0.06684943288564682,-999.637451171875,0.4317038953304291,0.00100863934494555,0.1470033824443817
1127,868,-0.026431281119585037,0.06684943288564682,-999.637451171875,0.4317038953304291,0.00100863934494555,0.1470033824443817
1166,868,-0.026431281119585037,0.06684943288564682,-999.637451171875,0.4317038953304291,0.00100863934494555,0.1470033824443817
1149,868,-0.026431281119585037,0.06684943288564682,-999.637451171875,0.4317038953304291,0.00100863934494555,0.1470033824443817
1077,868,-0.026431281119585037,0.06684943288564682,-999.637451171875,0.4317038953304291,0.00100863934494555,0.1470033824443817
1058,868,-0.026431281119585037,0.06684943288564682,-999.637451171875,0.4317038953304291,0.00100863934494555,0.1470033824443817
1097,868,-0.026431281119585037,0.06684943288564682,-999.637451171875,0.4317038953304291,0.00100863934494555,0.1470033824443817
1080,868,-0.026431281119585037,0.06684943288564682,-999.637451171875,0.4317038953304291,0.00100863934494555,0.1470033824443817
1173,869,-0.4495060443878174,-0.7368851900100708,-1000.3165893554688,0.06859920918941498,-0.07159680128097534,-0.1572231948375702
1129,869,-0.4495060443878174,-0.7368851900100708,-1000.3165893554688,0.06859920918941498,-0.07159680128097534,-0.1572231948375702
1146,869,-0.4495060443878174,-0.7368851900100708,-1000.3165893554688,0.06859920918941498,-0.07159680128097534,-0.1572231948375702
1149,869,-0.4495060443878174,-0.7368851900100708,-1000.3165893554688,0.06859920918941498,-0.07159680128097534,-0.1572231948375702
1104,869,-0.4495060443878174,-0.7368851900100708,-1000.3165893554688,0.06859920918941498,-0.07159680128097534,-0.1572231948375702
1060,869,-0.4495060443878174,-0.7368851900100708,-1000.3165893554688,0.06859920918941498,-0.07159680128097534,-0.1572231948375702
1077,869,-0.4495060443878174,-0.7368851900100708,-1000.3165893554688,0.06859920918941498,-0.07159680128097534,-0.1572231948375702
1080,869,-0.4495060443878174,-0.7368851900100708,-1000.3165893554688,0.06859920918941498,-0.07159680128097534,-0.1572231948375702
1133,870,-0.5215792655944824,-0.336896151304245,-1000.08837890625,-0.07317856699228287,-0.14835171401500702,0.12106873840093613
1134,870,-0.5215792655944824,-0.336896151304245,-1000.08837890625,-0.07317856699228287,-0.14835171401500702,0.12106873840093613
1170,870,-0.5215792655944824,-0.336896151304245,-1000.08837890625,-0.07317856699228287,-0.14835171401500702,0.12106873840093613
1148,870,-0.5215792655944824,-0.336896151304245,-1000.08837890625,-0.07317856699228287,-0.14835171401500702,0.12106873840093613
1064,870,-0.5215792655944824,-0.336896151304245,-1000.08837890625,-0.07317856699228287,-0.14835171401500702,0.12106873840093613
1065,870,-0.5215792655944824,-0.336896151304245,-1000.08837890625,-0.07317856699228287,-0.14835171401500702,0.12106873840093613
1101,870,-0.5215792655944824,-0.336896151304245,-1000.08837890625,-0.07317856699228287,-0.14835171401500702,0.12106873840093613
1079,870,-0.5215792655944824,-0.336896151304245,-1000.08837890625,-0.07317856699228287,-0.14835171401500702,0.12106873840093613
1118,871,0.22256915271282196,0.5169342160224915,-999.9952392578125,-0.2489595115184784,0.0033350966405123472,0.03531902655959129
1127,871,0.22256915271282196,0.5169342160224915,-999.9952392578125,-0.2489595115184784,0.0033350966405123472,0.03531902655959129
1146,871,0.22256915271282196,0.5169342160224915,-999.9952392578125,-0.2489595115184784,0.0033350966405123472,0.03531902655959129
1126,871,0.22256915271282196,0.5169342160224915,-999.9952392578125,-0.2489595115184784,0.0033350966405123472,0.03531902655959129
1049,871,0.22256915271282196,0.5169342160224915,-999.9952392578125,-0.2489595115184784,0.0033350966405123472,0.03531902655959129
1058,871,0.22256915271282196,0.5169342160224915,-999.9952392578125,-0.2489595115184784,0.0033350966405123472,0.03531902655959129
1077,871,0.22256915271282196,0.5169342160224915,-999.9952392578125,-0.2489595115184784,0.0033350966405123472,0.03531902655959129
1057,871,0.22256915271282196,0.5169342160224915,-999.9952392578125,-0.2489595115184784,0.0033350966405123472,0.03531902655959129
1115,872,0.23258903622627258,0.8278898596763611,-999.9669799804688,0.04757605865597725,-0.004365717992186546,-0.008682363666594028
1161,872,0.23258903622627258,0.8278898596763611,-999.9669799804688,0.04757605865597725,-0.004365717992186546,-0.008682363666594028
1130,872,0.23258903622627258,0.8278898596763611,-999.9669799804688,0.04757605865597725,-0.004365717992186546,-0.008682363666594028
1125,872,0.23258903622627258,0.8278898596763611,-999.9669799804688,0.04757605865597725,-0.004365717992186546,-0.008682363666594028
1046,872,0.23258903622627258,0.8278898596763611,-999.9669799804688,0.04757605865597725,-0.004365717992186546,-0.008682363666594028
1092,872,0.23258903622627258,0.8278898596763611,-999.9669799804688,0.04757605865597725,-0.004365717992186546,-0.008682363666594028
1061,872,0.23258903622627258,0.8278898596763611,-999.9669799804688,0.04757605865597725,-0.004365717992186546,-0.008682363666594028
1056,872,0.23258903622627258,0.8278898596763611,-999.9669799804688,0.04757605865597725,-0.004365717992186546,-0.008682363666594028
1131,873,0.29183289408683777,0.04348672181367874,-999.9892578125,0.0898483470082283,0.02017482928931713,-0.03366522118449211
1114,873,0.29183289408683777,0.04348672181367874,-999.9892578125,0.0898483470082283,0.02017482928931713,-0.03366522118449211
1124,873,0.29183289408683777,0.04348672181367874,-999.9892578125,0.0898483470082283,0.02017482928931713,-0.03366522118449211
1144,873,0.29183289408683777,0.04348672181367874,-999.9892578125,0.0898483470082283,0.02017482928931713,-0.03366522118449211
1062,873,0.29183289408683777,0.04348672181367874,-999.9892578125,0.0898483470082283,0.02017482928931713,-0.03366522118449211
1045,873,0.29183289408683777,0.04348672181367874,-999.9892578125,0.0898483470082283,0.02017482928931713,-0.03366522118449211
1055,873,0.29183289408683777,0.04348672181367874,-999.9892578125,0.0898483470082283,0.02017482928931713,-0.03366522118449211
1075,873,0.29183289408683777,0.04348672181367874,-999.9892578125,0.0898483470082283,0.02017482928931713,-0.03366522118449211
1132,874,0.2751173973083496,0.05795111134648323,-1000.017578125,0.0058863479644060135,0.028796587139368057,0.016837457194924355
1120,874,0.2751173973083496,0.05795111134648323,-1000.017578125,0.0058863479644060135,0.028796587139368057,0.016837457194924355
1119,874,0.2751173973083496,0.05795111134648323,-1000.017578125,0.0058863479644060135,0.028796587139368057,0.016837457194924355
1129,874,0.2751173973083496,0.05795111134648323,-1000.017578125,0.0058863479644060135,0.028796587139368057,0.016837457194924355
1063,874,0.2751173973083496,0.05795111134648323,-1000.017578125,0.0058863479644060135,0.028796587139368057,0.016837457194924355
1051,874,0.2751173973083496,0.05795111134648323,-1000.017578125,0.0058863479644060135,0.028796587139368057,0.016837457194924355
1050,874,0.2751173973083496,0.05795111134648323,-1000.017578125,0.0058863479644060135,0.028796587139368057,0.016837457194924355
1060,874,0.2751173973083496,0.05795111134648323,-1000.017578125,0.0058863479644060135,0.028796587139368057,0.016837457194924355
1144,875,0.17485783994197845,-0.03595413267612457,-1000.0252075195312,-0.03442445397377014,-0.030739573761820793,0.023087576031684875
1124,875,0.17485783994197845,-0.03595413267612457,-1000.0252075195312,-0.03442445397377014,-0.030739573761820793,0.023087576031684875
1113,875,0.17485783994197845,-0.03595413267612457,-1000.0252075195312,-0.03442445397377014,-0.030739573761820793,0.023087576031684875
1133,875,0.17485783994197845,-0.03595413267612457,-1000.0252075195312,-0.03442445397377014,-0.030739573761820793,0.023087576031684875
1075,875,0.17485783994197845,-0.03595413267612457,-1000.0252075195312,-0.03442445397377014,-0.030739573761820793,0.023087576031684875
1055,875,0.17485783994197845,-0.03595413267612457,-1000.0252075195312,-0.03442445397377014,-0.030739573761820793,0.023087576031684875
1044,875,0.17485783994197845,-0.03595413267612457,-1000.0252075195312,-0.03442445397377014,-0.030739573761820793,0.023087576031684875
1064,875,0.17485783994197845,-0.03595413267612457,-1000.0252075195312,-0.03442445397377014,-0.030739573761820793,0.023087576031684875
1168,876,-0.23085817694664001,-0.31855839490890503,-1000.1126708984375,-0.31194624304771423,0.0839407742023468,-0.053581852465867996
1161,876,-0.23085817694664001,-0.31855839490890503,-1000.1126708984375,-0.31194624304771423,0.0839407742023468,-0.053581852465867996
1131,876,-0.23085817694664001,-0.31855839490890503,-1000.1126708984375,-0.31194624304771423,0.0839407742023468,-0.053581852465867996
1156,876,-0.23085817694664001,-0.31855839490890503,-1000.1126708984375,-0.31194624304771423,0.0839407742023468,-0.053581852465867996
1099,876,-0.23085817694664001,-0.31855839490890503,-1000.1126708984375,-0.31194624304771423,0.0839407742023468,-0.053581852465867996
1092,876,-0.23085817694664001,-0.31855839490890503,-1000.1126708984375,-0.31194624304771423,0.0839407742023468,-0.053581852465867996
1062,876,-0.23085817694664001,-0.31855839490890503,-1000.1126708984375,-0.31194624304771423,0.0839407742023468,-0.053581852465867996
1087,876,-0.23085817694664001,-0.31855839490890503,-1000.1126708984375,-0.31194624304771423,0.0839407742023468,-0.053581852465867996
1133,877,0.21716049313545227,0.00039288942934945226,-999.9755249023438,-0.08276750147342682,0.008058381266891956,-0.04487713426351547
1113,877,0.21716049313545227,0.00039288942934945226,-999.9755249023438,-0.08276750147342682,0.008058381266891956,-0.04487713426351547
1112,877,0.21716049313545227,0.00039288942934945226,-999.9755249023438,-0.08276750147342682,0.008058381266891956,-0.04487713426351547
1134,877,0.21716049313545227,0.00039288942934945226,-999.9755249023438,-0.08276750147342682,0.008058381266891956,-0.04487713426351547
1064,877,0.21716049313545227,0.00039288942934945226,-999.9755249023438,-0.08276750147342682,0.008058381266891956,-0.04487713426351547
1044,877,0.21716049313545227,0.00039288942934945226,-999.9755249023438,-0.08276750147342682,0.008058381266891956,-0.04487713426351547
1043,877,0.21716049313545227,0.00039288942934945226,-999.9755249023438,-0.08276750147342682,0.008058381266891956,-0.04487713426351547
1065,877,0.21716049313545227,0.00039288942934945226,-999.9755249023438,-0.08276750147342682,0.008058381266891956,-0.04487713426351547
1134,878,0.39556339383125305,0.10730551183223724,-1000.0304565429688,0.04585786536335945,-0.010866527445614338,0.04051504284143448
1112,878,0.39556339383125305,0.10730551183223724,-1000.0304565429688,0.04585786536335945,-0.010866527445614338,0.04051504284143448
1111,878,0.39556339383125305,0.10730551183223724,-1000.0304565429688,0.04585786536335945,-0.010866527445614338,0.04051504284143448
1135,878,0.39556339383125305,0.10730551183223724,-1000.0304565429688,0.04585786536335945,-0.010866527445614338,0.04051504284143448
1065,878,0.39556339383125305,0.10730551183223724,-1000.0304565429688,0.04585786536335945,-0.010866527445614338,0.04051504284143448
1043,878,0.39556339383125305,0.10730551183223724,-1000.0304565429688,0.04585786536335945,-0.010866527445614338,0.04051504284143448
1042,878,0.39556339383125305,0.10730551183223724,-1000.0304565429688,0.04585786536335945,-0.010866527445614338,0.04051504284143448
1066,878,0.39556339383125305,0.10730551183223724,-1000.0304565429688,0.04585786536335945,-0.010866527445614338,0.04051504284143448
1165,879,-0.18804684281349182,0.4142448604106903,-1000.1243896484375,0.11801785975694656,-0.02692747302353382,0.2965245246887207
1153,879,-0.18804684281349182,0.4142448604106903,-1000.1243896484375,0.11801785975694656,-0.02692747302353382,0.2965245246887207
1164,879,-0.18804684281349182,0.4142448604106903,-1000.1243896484375,0.11801785975694656,-0.02692747302353382,0.2965245246887207
1158,879,-0.18804684281349182,0.4142448604106903,-1000.1243896484375,0.11801785975694656,-0.02692747302353382,0.2965245246887207
1096,879,-0.18804684281349182,0.4142448604106903,-1000.1243896484375,0.11801785975694656,-0.02692747302353382,0.2965245246887207
1084,879,-0.18804684281349182,0.4142448604106903,-1000.1243896484375,0.11801785975694656,-0.02692747302353382,0.2965245246887207
1095,879,-0.18804684281349182,0.4142448604106903,-1000.1243896484375,0.11801785975694656,-0.02692747302353382,0.2965245246887207
1089,879,-0.18804684281349182,0.4142448604106903,-1000.1243896484375,0.11801785975694656,-0.02692747302353382,0.2965245246887207
1120,880,0.30352169275283813,0.13626007735729218,-999.9886474609375,0.16963620483875275,0.021213902160525322,-0.04123729094862938
1132,880,0.30352169275283813,0.13626007735729218,-999.9886474609375,0.16963620483875275,0.021213902160525322,-0.04123729094862938
1140,880,0.30352169275283813,0.13626007735729218,-999.9886474609375,0.16963620483875275,0.021213902160525322,-0.04123729094862938
1105,880,0.30352169275283813,0.13626007735729218,-999.9886474609375,0.16963620483875275,0.021213902160525322,-0.04123729094862938
1051,880,0.30352169275283813,0.13626007735729218,-999.9886474609375,0.16963620483875275,0.021213902160525322,-0.04123729094862938
1063,880,0.30352169275283813,0.13626007735729218,-999.9886474609375,0.16963620483875275,0.021213902160525322,-0.04123729094862938
1071,880,0.30352169275283813,0.13626007735729218,-999.9886474609375,0.16963620483875275,0.021213902160525322,-0.04123729094862938
1036,880,0.30352169275283813,0.13626007735729218,-999.9886474609375,0.16963620483875275,0.021213902160525322,-0.04123729094862938
1135,881,0.3519454598426819,-0.018257061019539833,-999.9736328125,0.020153755322098732,-0.018704315647482872,-0.009889225475490093
1111,881,0.3519454598426819,-0.018257061019539833,-999.9736328125,0.020153755322098732,-0.018704315647482872,-0.009889225475490093
1123,881,0.3519454598426819,-0.018257061019539833,-999.9736328125,0.020153755322098732,-0.018704315647482872,-0.009889225475490093
1143,881,0.3519454598426819,-0.018257061019539833,-999.9736328125,0.020153755322098732,-0.018704315647482872,-0.009889225475490093
1066,881,0.3519454598426819,-0.018257061019539833,-999.9736328125,0.020153755322098732,-0.018704315647482872,-0.009889225475490093
1042,881,0.3519454598426819,-0.018257061019539833,-999.9736328125,0.020153755322098732,-0.018704315647482872,-0.009889225475490093
1054,881,0.3519454598426819,-0.018257061019539833,-999.9736328125,0.020153755322098732,-0.018704315647482872,-0.009889225475490093
1074,881,0.3519454598426819,-0.018257061019539833,-999.9736328125,0.020153755322098732,-0.018704315647482872,-0.009889225475490093
1143,882,0.3877337872982025,0.1354958713054657,-1000.033935546875,-0.1493285894393921,-0.0020801746286451817,0.03394618257880211
1123,882,0.3877337872982025,0.1354958713054657,-1000.033935546875,-0.1493285894393921,-0.0020801746286451817,0.03394618257880211
1110,882,0.3877337872982025,0.1354958713054657,-1000.033935546875,-0.1493285894393921,-0.0020801746286451817,0.03394618257880211
1136,882,0.3877337872982025,0.1354958713054657,-1000.033935546875,-0.1493285894393921,-0.0020801746286451817,0.03394618257880211
1074,882,0.3877337872982025,0.1354958713054657,-1000.033935546875,-0.1493285894393921,-0.0020801746286451817,0.03394618257880211
1054,882,0.3877337872982025,0.1354958713054657,-1000.033935546875,-0.1493285894393921,-0.0020801746286451817,0.03394618257880211
1041,882,0.3877337872982025,0.1354958713054657,-1000.033935546875,-0.1493285894393921,-0.0020801746286451817,0.03394618257880211
1067,882,0.3877337872982025,0.1354958713054657,-1000.033935546875,-0.1493285894393921,-0.0020801746286451817,0.03394618257880211
1136,883,0.24809794127941132,0.4029436409473419,-999.9634399414062,-0.16092559695243835,-0.009945003315806389,-0.034721050411462784
1110,883,0.24809794127941132,0.4029436409473419,-999.9634399414062,-0.16092559695243835,-0.009945003315806389,-0.034721050411462784
1109,883,0.24809794127941132,0.4029436409473419,-999.9634399414062,-0.16092559695243835,-0.009945003315806389,-0.034721050411462784
1137,883,0.24809794127941132,0.4029436409473419,-999.9634399414062,-0.16092559695243835,-0.009945003315806389,-0.034721050411462784
1067,883,0.24809794127941132,0.4029436409473419,-999.9634399414062,-0.16092559695243835,-0.009945003315806389,-0.034721050411462784
1041,883,0.24809794127941132,0.4029436409473419,-999.9634399414062,-0.16092559695243835,-0.009945003315806389,-0.034721050411462784
1040,883,0.24809794127941132,0.4029436409473419,-999.9634399414062,-0.16092559695243835,-0.009945003315806389,-0.034721050411462784
1068,883,0.24809794127941132,0.4029436409473419,-999.9634399414062,-0.16092559695243835,-0.009945003315806389,-0.034721050411462784
1137,884,0.04280053451657295,0.30405110120773315,-1000.0352783203125,-0.013266971334815025,-0.0172693133354187,0.0449402891099453
1109,884,0.04280053451657295,0.30405110120773315,-1000.0352783203125,-0.013266971334815025,-0.0172693133354187,0.0449402891099453
1122,884,0.04280053451657295,0.30405110120773315,-1000.0352783203125,-0.013266971334815025,-0.0172693133354187,0.0449402891099453
1142,884,0.04280053451657295,0.30405110120773315,-1000.0352783203125,-0.013266971334815025,-0.0172693133354187,0.0449402891099453
1068,884,0.04280053451657295,0.30405110120773315,-1000.0352783203125,-0.013266971334815025,-0.0172693133354187,0.0449402891099453
1040,884,0.04280053451657295,0.30405110120773315,-1000.0352783203125,-0.013266971334815025,-0.0172693133354187,0.0449402891099453
1053,884,0.04280053451657295,0.30405110120773315,-1000.0352783203125,-0.013266971334815025,-0.0172693133354187,0.0449402891099453
1073,884,0.04280053451657295,0.30405110120773315,-1000.0352783203125,-0.013266971334815025,-0.0172693133354187,0.0449402891099453
1142,885,0.08800560235977173,0.25986769795417786,-999.9786987304688,0.047146182507276535,0.003117987420409918,0.024301979690790176
1122,885,0.08800560235977173,0.25986769795417786,-999.9786987304688,0.047146182507276535,0.003117987420409918,0.024301979690790176
1108,885,0.08800560235977173,0.25986769795417786,-999.9786987304688,0.047146182507276535,0.003117987420409918,0.024301979690790176
1138,885,0.08800560235977173,0.25986769795417786,-999.9786987304688,0.047146182507276535,0.003117987420409918,0.024301979690790176
1073,885,0.08800560235977173,0.25986769795417786,-999.9786987304688,0.047146182507276535,0.003117987420409918,0.024301979690790176
1053,885,0.08800560235977173,0.25986769795417786,-999.9786987304688,0.047146182507276535,0.003117987420409918,0.024301979690790176
1039,885,0.08800560235977173,0.25986769795417786,-999.9786987304688,0.047146182507276535,0.003117987420409918,0.024301979690790176
1069,885,0.08800560235977173,0.25986769795417786,-999.9786987304688,0.047146182507276535,0.003117987420409918,0.024301979690790176
1162,886,0.5897474884986877,0.6167798638343811,-999.9754028320312,0.25366926193237305,-0.017987065017223358,0.045296184718608856
1107,886,0.5897474884986877,0.6167798638343811,-999.9754028320312,0.25366926193237305,-0.017987065017223358,0.045296184718608856
1106,886,0.5897474884986877,0.6167798638343811,-999.9754028320312,0.25366926193237305,-0.017987065017223358,0.045296184718608856
1163,886,0.5897474884986877,0.6167798638343811,-999.9754028320312,0.25366926193237305,-0.017987065017223358,0.045296184718608856
1093,886,0.5897474884986877,0.6167798638343811,-999.9754028320312,0.25366926193237305,-0.017987065017223358,0.045296184718608856
1038,886,0.5897474884986877,0.6167798638343811,-999.9754028320312,0.25366926193237305,-0.017987065017223358,0.045296184718608856
1037,886,0.5897474884986877,0.6167798638343811,-999.9754028320312,0.25366926193237305,-0.017987065017223358,0.045296184718608856
1094,886,0.5897474884986877,0.6167798638343811,-999.9754028320312,0.25366926193237305,-0.017987065017223358,0.045296184718608856
1141,887,0.023381942883133888,0.1480308324098587,-1000.0134887695312,0.07075445353984833,0.014575409702956676,0.04132542014122009
1121,887,0.023381942883133888,0.1480308324098587,-1000.0134887695312,0.07075445353984833,0.014575409702956676,0.04132542014122009
1105,887,0.023381942883133888,0.1480308324098587,-1000.0134887695312,0.07075445353984833,0.014575409702956676,0.04132542014122009
1140,887,0.023381942883133888,0.1480308324098587,-1000.0134887695312,0.07075445353984833,0.014575409702956676,0.04132542014122009
1072,887,0.023381942883133888,0.1480308324098587,-1000.0134887695312,0.07075445353984833,0.014575409702956676,0.04132542014122009
1052,887,0.023381942883133888,0.1480308324098587,-1000.0134887695312,0.07075445353984833,0.014575409702956676,0.04132542014122009
1036,887,0.023381942883133888,0.1480308324098587,-1000.0134887695312,0.07075445353984833,0.014575409702956676,0.04132542014122009
1071,887,0.023381942883133888,0.1480308324098587,-1000.0134887695312,0.07075445353984833,0.014575409702956676,0.04132542014122009
1164,888,-0.8515475988388062,-1.0255157947540283,-1000.326171875,-0.17721949517726898,0.004068552050739527,-0.09422416985034943
1140,888,-0.8515475988388062,-1.0255157947540283,-1000.326171875,-0.17721949517726898,0.004068552050739527,-0.09422416985034943
1132,888,-0.8515475988388062,-1.0255157947540283,-1000.326171875,-0.17721949517726898,0.004068552050739527,-0.09422416985034943
1147,888,-0.8515475988388062,-1.0255157947540283,-1000.326171875,-0.17721949517726898,0.004068552050739527,-0.09422416985034943
1095,888,-0.8515475988388062,-1.0255157947540283,-1000.326171875,-0.17721949517726898,0.004068552050739527,-0.09422416985034943
1071,888,-0.8515475988388062,-1.0255157947540283,-1000.326171875,-0.17721949517726898,0.004068552050739527,-0.09422416985034943
1063,888,-0.8515475988388062,-1.0255157947540283,-1000.326171875,-0.17721949517726898,0.004068552050739527,-0.09422416985034943
1078,888,-0.8515475988388062,-1.0255157947540283,-1000.326171875,-0.17721949517726898,0.004068552050739527,-0.09422416985034943
1163,889,-0.4007418751716614,-0.893610954284668,-1000.1649169921875,-0.10685855895280838,-0.07366552948951721,-0.04383186623454094
1141,889,-0.4007418751716614,-0.893610954284668,-1000.1649169921875,-0.10685855895280838,-0.07366552948951721,-0.04383186623454094
1153,889,-0.4007418751716614,-0.893610954284668,-1000.1649169921875,-0.10685855895280838,-0.07366552948951721,-0.04383186623454094
1139,889,-0.4007418751716614,-0.893610954284668,-1000.1649169921875,-0.10685855895280838,-0.07366552948951721,-0.04383186623454094
1094,889,-0.4007418751716614,-0.893610954284668,-1000.1649169921875,-0.10685855895280838,-0.07366552948951721,-0.04383186623454094
1072,889,-0.4007418751716614,-0.893610954284668,-1000.1649169921875,-0.10685855895280838,-0.07366552948951721,-0.04383186623454094
1084,889,-0.4007418751716614,-0.893610954284668,-1000.1649169921875,-0.10685855895280838,-0.07366552948951721,-0.04383186623454094
1070,889,-0.4007418751716614,-0.893610954284668,-1000.1649169921875,-0.10685855895280838,-0.07366552948951721,-0.04383186623454094
1138,890,0.21361754834651947,0.34615421295166016,-1000.0054931640625,0.23653511703014374,-0.008462414145469666,-0.0009999932954087853
1108,890,0.21361754834651947,0.34615421295166016,-1000.0054931640625,0.23653511703014374,-0.008462414145469666,-0.0009999932954087853
1107,890,0.21361754834651947,0.34615421295166016,-1000.0054931640625,0.23653511703014374,-0.008462414145469666,-0.0009999932954087853
1162,890,0.21361754834651947,0.34615421295166016,-1000.0054931640625,0.23653511703014374,-0.008462414145469666,-0.0009999932954087853
1069,890,0.21361754834651947,0.34615421295166016,-1000.0054931640625,0.23653511703014374,-0.008462414145469666,-0.0009999932954087853
1039,890,0.21361754834651947,0.34615421295166016,-1000.0054931640625,0.23653511703014374,-0.008462414145469666,-0.0009999932954087853
1038,890,0.21361754834651947,0.34615421295166016,-1000.0054931640625,0.23653511703014374,-0.008462414145469666,-0.0009999932954087853
1093,890,0.21361754834651947,0.34615421295166016,-1000.0054931640625,0.23653511703014374,-0.008462414145469666,-0.0009999932954087853
1147,891,-0.06812474131584167,0.7244187593460083,-999.6285400390625,-0.008934702724218369,-0.23014192283153534,0.2429637908935547
1132,891,-0.06812474131584167,0.7244187593460083,-999.6285400390625,-0.008934702724218369,-0.23014192283153534,0.2429637908935547
1129,891,-0.06812474131584167,0.7244187593460083,-999.6285400390625,-0.008934702724218369,-0.23014192283153534,0.2429637908935547
1173,891,-0.06812474131584167,0.7244187593460083,-999.6285400390625,-0.008934702724218369,-0.23014192283153534,0.2429637908935547
1078,891,-0.06812474131584167,0.7244187593460083,-999.6285400390625,-0.008934702724218369,-0.23014192283153534,0.2429637908935547
1063,891,-0.06812474131584167,0.7244187593460083,-999.6285400390625,-0.008934702724218369,-0.23014192283153534,0.2429637908935547
1060,891,-0.06812474131584167,0.7244187593460083,-999.6285400390625,-0.008934702724218369,-0.23014192283153534,0.2429637908935547
1104,891,-0.06812474131584167,0.7244187593460083,-999.6285400390625,-0.008934702724218369,-0.23014192283153534,0.2429637908935547
1158,892,-0.05897530913352966,-0.22221189737319946,-1000.0475463867188,-0.3222475051879883,0.030022528022527695,0.08113773167133331
1173,892,-0.05897530913352966,-0.22221189737319946,-1000.0475463867188,-0.3222475051879883,0.030022528022527695,0.08113773167133331
1149,892,-0.05897530913352966,-0.22221189737319946,-1000.0475463867188,-0.3222475051879883,0.030022528022527695,0.08113773167133331
1157,892,-0.05897530913352966,-0.22221189737319946,-1000.0475463867188,-0.3222475051879883,0.030022528022527695,0.08113773167133331
1089,892,-0.05897530913352966,-0.22221189737319946,-1000.0475463867188,-0.3222475051879883,0.030022528022527695,0.08113773167133331
1104,892,-0.05897530913352966,-0.22221189737319946,-1000.0475463867188,-0.3222475051879883,0.030022528022527695,0.08113773167133331
1080,892,-0.05897530913352966,-0.22221189737319946,-1000.0475463867188,-0.3222475051879883,0.030022528022527695,0.08113773167133331
1088,892,-0.05897530913352966,-0.22221189737319946,-1000.0475463867188,-0.3222475051879883,0.030022528022527695,0.08113773167133331
1128,893,0.03180135414004326,-0.40688174962997437,-999.657958984375,0.17298783361911774,-0.06344141811132431,0.15657435357570648
1145,893,0.03180135414004326,-0.40688174962997437,-999.657958984375,0.17298783361911774,-0.06344141811132431,0.15657435357570648
1167,893,0.03180135414004326,-0.40688174962997437,-999.657958984375,0.17298783361911774,-0.06344141811132431,0.15657435357570648
1152,893,0.03180135414004326,-0.40688174962997437,-999.657958984375,0.17298783361911774,-0.06344141811132431,0.15657435357570648
1059,893,0.03180135414004326,-0.40688174962997437,-999.657958984375,0.17298783361911774,-0.06344141811132431,0.15657435357570648
1076,893,0.03180135414004326,-0.40688174962997437,-999.657958984375,0.17298783361911774,-0.06344141811132431,0.15657435357570648
1098,893,0.03180135414004326,-0.40688174962997437,-999.657958984375,0.17298783361911774,-0.06344141811132431,0.15657435357570648
1083,893,0.03180135414004326,-0.40688174962997437,-999.657958984375,0.17298783361911774,-0.06344141811132431,0.15657435357570648
1152,894,-0.156988725066185,0.6999427080154419,-1000.0045776367188,0.02213238924741745,0.04940667003393173,-0.18886332213878632
1167,894,-0.156988725066185,0.6999427080154419,-1000.0045776367188,0.02213238924741745,0.04940667003393173,-0.18886332213878632
1151,894,-0.156988725066185,0.6999427080154419,-1000.0045776367188,0.02213238924741745,0.04940667003393173,-0.18886332213878632
1157,894,-0.156988725066185,0.6999427080154419,-1000.0045776367188,0.02213238924741745,0.04940667003393173,-0.18886332213878632
1083,894,-0.156988725066185,0.6999427080154419,-1000.0045776367188,0.02213238924741745,0.04940667003393173,-0.18886332213878632
1098,894,-0.156988725066185,0.6999427080154419,-1000.0045776367188,0.02213238924741745,0.04940667003393173,-0.18886332213878632
1082,894,-0.156988725066185,0.6999427080154419,-1000.0045776367188,0.02213238924741745,0.04940667003393173,-0.18886332213878632
1088,894,-0.156988725066185,0.6999427080154419,-1000.0045776367188,0.02213238924741745,0.04940667003393173,-0.18886332213878632
1154,895,-0.4550846219062805,-0.6197028756141663,-1000.0704345703125,-0.18225422501564026,0.020789286121726036,-0.08967366069555283
1142,895,-0.4550846219062805,-0.6197028756141663,-1000.0704345703125,-0.18225422501564026,0.020789286121726036,-0.08967366069555283
1138,895,-0.4550846219062805,-0.6197028756141663,-1000.0704345703125,-0.18225422501564026,0.020789286121726036,-0.08967366069555283
1162,895,-0.4550846219062805,-0.6197028756141663,-1000.0704345703125,-0.18225422501564026,0.020789286121726036,-0.08967366069555283
1085,895,-0.4550846219062805,-0.6197028756141663,-1000.0704345703125,-0.18225422501564026,0.020789286121726036,-0.08967366069555283
1073,895,-0.4550846219062805,-0.6197028756141663,-1000.0704345703125,-0.18225422501564026,0.020789286121726036,-0.08967366069555283
1069,895,-0.4550846219062805,-0.6197028756141663,-1000.0704345703125,-0.18225422501564026,0.020789286121726036,-0.08967366069555283
1093,895,-0.4550846219062805,-0.6197028756141663,-1000.0704345703125,-0.18225422501564026,0.020789286121726036,-0.08967366069555283
1152,896,0.48437345027923584,0.7645626664161682,-999.8954467773438,-0.09820228070020676,0.16006723046302795,0.05135234817862511
1157,896,0.48437345027923584,0.7645626664161682,-999.8954467773438,-0.09820228070020676,0.16006723046302795,0.05135234817862511
1149,896,0.48437345027923584,0.7645626664161682,-999.8954467773438,-0.09820228070020676,0.16006723046302795,0.05135234817862511
1166,896,0.48437345027923584,0.7645626664161682,-999.8954467773438,-0.09820228070020676,0.16006723046302795,0.05135234817862511
1083,896,0.48437345027923584,0.7645626664161682,-999.8954467773438,-0.09820228070020676,0.16006723046302795,0.05135234817862511
1088,896,0.48437345027923584,0.7645626664161682,-999.8954467773438,-0.09820228070020676,0.16006723046302795,0.05135234817862511
1080,896,0.48437345027923584,0.7645626664161682,-999.8954467773438,-0.09820228070020676,0.16006723046302795,0.05135234817862511
1097,896,0.48437345027923584,0.7645626664161682,-999.8954467773438,-0.09820228070020676,0.16006723046302795,0.05135234817862511
1130,897,-0.24431239068508148,-1.045816421508789,-999.9002685546875,0.0898258313536644,0.02459617145359516,0.10149320960044861
1161,897,-0.24431239068508148,-1.045816421508789,-999.9002685546875,0.0898258313536644,0.02459617145359516,0.10149320960044861
1168,897,-0.24431239068508148,-1.045816421508789,-999.9002685546875,0.0898258313536644,0.02459617145359516,0.10149320960044861
1151,897,-0.24431239068508148,-1.045816421508789,-999.9002685546875,0.0898258313536644,0.02459617145359516,0.10149320960044861
1061,897,-0.24431239068508148,-1.045816421508789,-999.9002685546875,0.0898258313536644,0.02459617145359516,0.10149320960044861
1092,897,-0.24431239068508148,-1.045816421508789,-999.9002685546875,0.0898258313536644,0.02459617145359516,0.10149320960044861
1099,897,-0.24431239068508148,-1.045816421508789,-999.9002685546875,0.0898258313536644,0.02459617145359516,0.10149320960044861
1082,897,-0.24431239068508148,-1.045816421508789,-999.9002685546875,0.0898258313536644,0.02459617145359516,0.10149320960044861
1172,898,0.4821561574935913,0.5298380255699158,-1000.0216064453125,0.1526297926902771,-0.15656626224517822,0.19926126301288605
1154,898,0.4821561574935913,0.5298380255699158,-1000.0216064453125,0.1526297926902771,-0.15656626224517822,0.19926126301288605
1139,898,0.4821561574935913,0.5298380255699158,-1000.0216064453125,0.1526297926902771,-0.15656626224517822,0.19926126301288605
1160,898,0.4821561574935913,0.5298380255699158,-1000.0216064453125,0.1526297926902771,-0.15656626224517822,0.19926126301288605
1103,898,0.4821561574935913,0.5298380255699158,-1000.0216064453125,0.1526297926902771,-0.15656626224517822,0.19926126301288605
1085,898,0.4821561574935913,0.5298380255699158,-1000.0216064453125,0.1526297926902771,-0.15656626224517822,0.19926126301288605
1070,898,0.4821561574935913,0.5298380255699158,-1000.0216064453125,0.1526297926902771,-0.15656626224517822,0.19926126301288605
1091,898,0.4821561574935913,0.5298380255699158,-1000.0216064453125,0.1526297926902771,-0.15656626224517822,0.19926126301288605
1148,899,0.8616610169410706,-0.11789263039827347,-999.9690551757812,0.031378887593746185,-0.13255931437015533,-0.0519808754324913
1170,899,0.8616610169410706,-0.11789263039827347,-999.9690551757812,0.031378887593746185,-0.13255931437015533,-0.0519808754324913
1155,899,0.8616610169410706,-0.11789263039827347,-999.9690551757812,0.031378887593746185,-0.13255931437015533,-0.0519808754324913
1159,899,0.8616610169410706,-0.11789263039827347,-999.9690551757812,0.031378887593746185,-0.13255931437015533,-0.0519808754324913
1079,899,0.8616610169410706,-0.11789263039827347,-999.9690551757812,0.031378887593746185,-0.13255931437015533,-0.0519808754324913
1101,899,0.8616610169410706,-0.11789263039827347,-999.9690551757812,0.031378887593746185,-0.13255931437015533,-0.0519808754324913
1086,899,0.8616610169410706,-0.11789263039827347,-999.9690551757812,0.031378887593746185,-0.13255931437015533,-0.0519808754324913
1090,899,0.8616610169410706,-0.11789263039827347,-999.9690551757812,0.031378887593746185,-0.13255931437015533,-0.0519808754324913
1171,900,0.11299846321344376,0.19255927205085754,-999.8521118164062,0.5080870985984802,0.10362417250871658,-0.044377513229846954
1143,900,0.11299846321344376,0.19255927205085754,-999.8521118164062,0.5080870985984802,0.10362417250871658,-0.044377513229846954
1136,900,0.11299846321344376,0.19255927205085754,-999.8521118164062,0.5080870985984802,0.10362417250871658,-0.044377513229846954
1150,900,0.11299846321344376,0.19255927205085754,-999.8521118164062,0.5080870985984802,0.10362417250871658,-0.044377513229846954
1102,900,0.11299846321344376,0.19255927205085754,-999.8521118164062,0.5080870985984802,0.10362417250871658,-0.044377513229846954
1074,900,0.11299846321344376,0.19255927205085754,-999.8521118164062,0.5080870985984802,0.10362417250871658,-0.044377513229846954
1067,900,0.11299846321344376,0.19255927205085754,-999.8521118164062,0.5080870985984802,0.10362417250871658,-0.044377513229846954
1081,900,0.11299846321344376,0.19255927205085754,-999.8521118164062,0.5080870985984802,0.10362417250871658,-0.044377513229846954
1160,901,-0.24114052951335907,0.2486523985862732,-999.9765625,-0.27991896867752075,0.04892776533961296,-0.12433552742004395
1159,901,-0.24114052951335907,0.2486523985862732,-999.9765625,-0.27991896867752075,0.04892776533961296,-0.12433552742004395
1150,901,-0.24114052951335907,0.2486523985862732,-999.9765625,-0.27991896867752075,0.04892776533961296,-0.12433552742004395
1172,901,-0.24114052951335907,0.2486523985862732,-999.9765625,-0.27991896867752075,0.04892776533961296,-0.12433552742004395
1091,901,-0.24114052951335907,0.2486523985862732,-999.9765625,-0.27991896867752075,0.04892776533961296,-0.12433552742004395
1090,901,-0.24114052951335907,0.2486523985862732,-999.9765625,-0.27991896867752075,0.04892776533961296,-0.12433552742004395
1081,901,-0.24114052951335907,0.2486523985862732,-999.9765625,-0.27991896867752075,0.04892776533961296,-0.12433552742004395
1103,901,-0.24114052951335907,0.2486523985862732,-999.9765625,-0.27991896867752075,0.04892776533961296,-0.12433552742004395
1160,902,-0.08983626216650009,-0.5577645301818848,-1000.0442504882812,0.015555065125226974,-0.3619256615638733,-0.10173945873975754
1165,902,-0.08983626216650009,-0.5577645301818848,-1000.0442504882812,0.015555065125226974,-0.3619256615638733,-0.10173945873975754
1158,902,-0.08983626216650009,-0.5577645301818848,-1000.0442504882812,0.015555065125226974,-0.3619256615638733,-0.10173945873975754
1157,902,-0.08983626216650009,-0.5577645301818848,-1000.0442504882812,0.015555065125226974,-0.3619256615638733,-0.10173945873975754
1091,902,-0.08983626216650009,-0.5577645301818848,-1000.0442504882812,0.015555065125226974,-0.3619256615638733,-0.10173945873975754
1096,902,-0.08983626216650009,-0.5577645301818848,-1000.0442504882812,0.015555065125226974,-0.3619256615638733,-0.10173945873975754
1089,902,-0.08983626216650009,-0.5577645301818848,-1000.0442504882812,0.015555065125226974,-0.3619256615638733,-0.10173945873975754
1088,902,-0.08983626216650009,-0.5577645301818848,-1000.0442504882812,0.015555065125226974,-0.3619256615638733,-0.10173945873975754
1150,903,0.7200919389724731,0.4428943395614624,-999.99169921875,-0.10563818365335464,-0.1407380998134613,0.21777814626693726
1159,903,0.7200919389724731,0.4428943395614624,-999.99169921875,-0.10563818365335464,-0.1407380998134613,0.21777814626693726
1155,903,0.7200919389724731,0.4428943395614624,-999.99169921875,-0.10563818365335464,-0.1407380998134613,0.21777814626693726
1171,903,0.7200919389724731,0.4428943395614624,-999.99169921875,-0.10563818365335464,-0.1407380998134613,0.21777814626693726
1081,903,0.7200919389724731,0.4428943395614624,-999.99169921875,-0.10563818365335464,-0.1407380998134613,0.21777814626693726
1090,903,0.7200919389724731,0.4428943395614624,-999.99169921875,-0.10563818365335464,-0.1407380998134613,0.21777814626693726
1086,903,0.7200919389724731,0.4428943395614624,-999.99169921875,-0.10563818365335464,-0.1407380998134613,0.21777814626693726
1102,903,0.7200919389724731,0.4428943395614624,-999.99169921875,-0.10563818365335464,-0.1407380998134613,0.21777814626693726
1161,904,0.17565284669399261,0.4757317900657654,-1000.0130615234375,0.1585209220647812,-0.01769910752773285,0.010504663921892643
1115,904,0.17565284669399261,0.4757317900657654,-1000.0130615234375,0.1585209220647812,-0.01769910752773285,0.010504663921892643
1114,904,0.17565284669399261,0.4757317900657654,-1000.0130615234375,0.1585209220647812,-0.01769910752773285,0.010504663921892643
1131,904,0.17565284669399261,0.4757317900657654,-1000.0130615234375,0.1585209220647812,-0.01769910752773285,0.010504663921892643
1092,904,0.17565284669399261,0.4757317900657654,-1000.0130615234375,0.1585209220647812,-0.01769910752773285,0.010504663921892643
1046,904,0.17565284669399261,0.4757317900657654,-1000.0130615234375,0.1585209220647812,-0.01769910752773285,0.010504663921892643
1045,904,0.17565284669399261,0.4757317900657654,-1000.0130615234375,0.1585209220647812,-0.01769910752773285,0.010504663921892643
1062,904,0.17565284669399261,0.4757317900657654,-1000.0130615234375,0.1585209220647812,-0.01769910752773285,0.010504663921892643
1163,905,0.20111894607543945,0.4302455186843872,-999.9895629882812,0.2242627739906311,0.04741322249174118,-0.034588806331157684
1106,905,0.20111894607543945,0.4302455186843872,-999.9895629882812,0.2242627739906311,0.04741322249174118,-0.034588806331157684
1121,905,0.20111894607543945,0.4302455186843872,-999.9895629882812,0.2242627739906311,0.04741322249174118,-0.034588806331157684
1141,905,0.20111894607543945,0.4302455186843872,-999.9895629882812,0.2242627739906311,0.04741322249174118,-0.034588806331157684
1094,905,0.20111894607543945,0.4302455186843872,-999.9895629882812,0.2242627739906311,0.04741322249174118,-0.034588806331157684
1037,905,0.20111894607543945,0.4302455186843872,-999.9895629882812,0.2242627739906311,0.04741322249174118,-0.034588806331157684
1052,905,0.20111894607543945,0.4302455186843872,-999.9895629882812,0.2242627739906311,0.04741322249174118,-0.034588806331157684
1072,905,0.20111894607543945,0.4302455186843872,-999.9895629882812,0.2242627739906311,0.04741322249174118,-0.034588806331157684
1140,906,0.2276642769575119,0.24043457210063934,-999.7883911132812,-0.21400828659534454,-0.1694461703300476,0.03301651403307915
1164,906,0.2276642769575119,0.24043457210063934,-999.7883911132812,-0.21400828659534454,-0.1694461703300476,0.03301651403307915
1153,906,0.2276642769575119,0.24043457210063934,-999.7883911132812,-0.21400828659534454,-0.1694461703300476,0.03301651403307915
1141,906,0.2276642769575119,0.24043457210063934,-999.7883911132812,-0.21400828659534454,-0.1694461703300476,0.03301651403307915
1071,906,0.2276642769575119,0.24043457210063934,-999.7883911132812,-0.21400828659534454,-0.1694461703300476,0.03301651403307915
1095,906,0.2276642769575119,0.24043457210063934,-999.7883911132812,-0.21400828659534454,-0.1694461703300476,0.03301651403307915
1084,906,0.2276642769575119,0.24043457210063934,-999.7883911132812,-0.21400828659534454,-0.1694461703300476,0.03301651403307915
1072,906,0.2276642769575119,0.24043457210063934,-999.7883911132812,-0.21400828659534454,-0.1694461703300476,0.03301651403307915
1164,907,0.7515214681625366,0.4390397071838379,-999.8662719726562,0.27432480454444885,0.4095926880836487,-0.21167704463005066
1147,907,0.7515214681625366,0.4390397071838379,-999.8662719726562,0.27432480454444885,0.4095926880836487,-0.21167704463005066
1173,907,0.7515214681625366,0.4390397071838379,-999.8662719726562,0.27432480454444885,0.4095926880836487,-0.21167704463005066
1158,907,0.7515214681625366,0.4390397071838379,-999.8662719726562,0.27432480454444885,0.4095926880836487,-0.21167704463005066
1095,907,0.7515214681625366,0.4390397071838379,-999.8662719726562,0.27432480454444885,0.4095926880836487,-0.21167704463005066
1078,907,0.7515214681625366,0.4390397071838379,-999.8662719726562,0.27432480454444885,0.4095926880836487,-0.21167704463005066
1104,907,0.7515214681625366,0.4390397071838379,-999.8662719726562,0.27432480454444885,0.4095926880836487,-0.21167704463005066
1089,907,0.7515214681625366,0.4390397071838379,-999.8662719726562,0.27432480454444885,0.4095926880836487,-0.21167704463005066
1166,908,-0.4286539554595947,-1.273398756980896,-1000.452392578125,-0.06834422796964645,-0.1279408186674118,-0.14216941595077515
1127,908,-0.4286539554595947,-1.273398756980896,-1000.452392578125,-0.06834422796964645,-0.1279408186674118,-0.14216941595077515
1128,908,-0.4286539554595947,-1.273398756980896,-1000.452392578125,-0.06834422796964645,-0.1279408186674118,-0.14216941595077515
1152,908,-0.4286539554595947,-1.273398756980896,-1000.452392578125,-0.06834422796964645,-0.1279408186674118,-0.14216941595077515
1097,908,-0.4286539554595947,-1.273398756980896,-1000.452392578125,-0.06834422796964645,-0.1279408186674118,-0.14216941595077515
1058,908,-0.4286539554595947,-1.273398756980896,-1000.452392578125,-0.06834422796964645,-0.1279408186674118,-0.14216941595077515
1059,908,-0.4286539554595947,-1.273398756980896,-1000.452392578125,-0.06834422796964645,-0.1279408186674118,-0.14216941595077515
1083,908,-0.4286539554595947,-1.273398756980896,-1000.452392578125,-0.06834422796964645,-0.1279408186674118,-0.14216941595077515
1167,909,-0.2605482339859009,-0.8103322386741638,-1000.2552490234375,-0.14612267911434174,0.03800847381353378,0.039346449077129364
1145,909,-0.2605482339859009,-0.8103322386741638,-1000.2552490234375,-0.14612267911434174,0.03800847381353378,0.039346449077129364
1130,909,-0.2605482339859009,-0.8103322386741638,-1000.2552490234375,-0.14612267911434174,0.03800847381353378,0.039346449077129364
1151,909,-0.2605482339859009,-0.8103322386741638,-1000.2552490234375,-0.14612267911434174,0.03800847381353378,0.039346449077129364
1098,909,-0.2605482339859009,-0.8103322386741638,-1000.2552490234375,-0.14612267911434174,0.03800847381353378,0.039346449077129364
1076,909,-0.2605482339859009,-0.8103322386741638,-1000.2552490234375,-0.14612267911434174,0.03800847381353378,0.039346449077129364
1061,909,-0.2605482339859009,-0.8103322386741638,-1000.2552490234375,-0.14612267911434174,0.03800847381353378,0.039346449077129364
1082,909,-0.2605482339859009,-0.8103322386741638,-1000.2552490234375,-0.14612267911434174,0.03800847381353378,0.039346449077129364
1169,910,-0.29577547311782837,0.2518298327922821,-999.97802734375,0.022221921011805534,0.21674813330173492,-0.03448076546192169
1144,910,-0.29577547311782837,0.2518298327922821,-999.97802734375,0.022221921011805534,0.21674813330173492,-0.03448076546192169
1133,910,-0.29577547311782837,0.2518298327922821,-999.97802734375,0.022221921011805534,0.21674813330173492,-0.03448076546192169
1148,910,-0.29577547311782837,0.2518298327922821,-999.97802734375,0.022221921011805534,0.21674813330173492,-0.03448076546192169
1100,910,-0.29577547311782837,0.2518298327922821,-999.97802734375,0.022221921011805534,0.21674813330173492,-0.03448076546192169
1075,910,-0.29577547311782837,0.2518298327922821,-999.97802734375,0.022221921011805534,0.21674813330173492,-0.03448076546192169
1064,910,-0.29577547311782837,0.2518298327922821,-999.97802734375,0.022221921011805534,0.21674813330173492,-0.03448076546192169
1079,910,-0.29577547311782837,0.2518298327922821,-999.97802734375,0.022221921011805534,0.21674813330173492,-0.03448076546192169
1170,911,-0.452671617269516,0.23712056875228882,-999.86572265625,0.18490822613239288,0.19921046495437622,-0.06014484912157059
1134,911,-0.452671617269516,0.23712056875228882,-999.86572265625,0.18490822613239288,0.19921046495437622,-0.06014484912157059
1135,911,-0.452671617269516,0.23712056875228882,-999.86572265625,0.18490822613239288,0.19921046495437622,-0.06014484912157059
1155,911,-0.452671617269516,0.23712056875228882,-999.86572265625,0.18490822613239288,0.19921046495437622,-0.06014484912157059
1101,911,-0.452671617269516,0.23712056875228882,-999.86572265625,0.18490822613239288,0.19921046495437622,-0.06014484912157059
1065,911,-0.452671617269516,0.23712056875228882,-999.86572265625,0.18490822613239288,0.19921046495437622,-0.06014484912157059
1066,911,-0.452671617269516,0.23712056875228882,-999.86572265625,0.18490822613239288,0.19921046495437622,-0.06014484912157059
1086,911,-0.452671617269516,0.23712056875228882,-999.86572265625,0.18490822613239288,0.19921046495437622,-0.06014484912157059
1172,912,0.33584851026535034,-0.0407586470246315,-999.8955688476562,0.1828194558620453,0.06407730281352997,-0.08847422152757645
1137,912,0.33584851026535034,-0.0407586470246315,-999.8955688476562,0.1828194558620453,0.06407730281352997,-0.08847422152757645
1142,912,0.33584851026535034,-0.0407586470246315,-999.8955688476562,0.1828194558620453,0.06407730281352997,-0.08847422152757645
1154,912,0.33584851026535034,-0.0407586470246315,-999.8955688476562,0.1828194558620453,0.06407730281352997,-0.08847422152757645
1103,912,0.33584851026535034,-0.0407586470246315,-999.8955688476562,0.1828194558620453,0.06407730281352997,-0.08847422152757645
1068,912,0.33584851026535034,-0.0407586470246315,-999.8955688476562,0.1828194558620453,0.06407730281352997,-0.08847422152757645
1073,912,0.33584851026535034,-0.0407586470246315,-999.8955688476562,0.1828194558620453,0.06407730281352997,-0.08847422152757645
1085,912,0.33584851026535034,-0.0407586470246315,-999.8955688476562,0.1828194558620453,0.06407730281352997,-0.08847422152757645
1197,913,-0.08605796098709106,-0.5640847086906433,-1000.0057373046875,-0.01597856730222702,-0.031058069318532944,-0.01667431928217411
1186,913,-0.08605796098709106,-0.5640847086906433,-1000.0057373046875,-0.01597856730222702,-0.031058069318532944,-0.01667431928217411
1185,913,-0.08605796098709106,-0.5640847086906433,-1000.0057373046875,-0.01597856730222702,-0.031058069318532944,-0.01667431928217411
1214,913,-0.08605796098709106,-0.5640847086906433,-1000.0057373046875,-0.01597856730222702,-0.031058069318532944,-0.01667431928217411
1128,913,-0.08605796098709106,-0.5640847086906433,-1000.0057373046875,-0.01597856730222702,-0.031058069318532944,-0.01667431928217411
1117,913,-0.08605796098709106,-0.5640847086906433,-1000.0057373046875,-0.01597856730222702,-0.031058069318532944,-0.01667431928217411
1116,913,-0.08605796098709106,-0.5640847086906433,-1000.0057373046875,-0.01597856730222702,-0.031058069318532944,-0.01667431928217411
1145,913,-0.08605796098709106,-0.5640847086906433,-1000.0057373046875,-0.01597856730222702,-0.031058069318532944,-0.01667431928217411
1214,914,-0.19119420647621155,-0.6465838551521301,-999.9808349609375,0.06259392946958542,0.015576503239572048,0.051700253039598465
1185,914,-0.19119420647621155,-0.6465838551521301,-999.9808349609375,0.06259392946958542,0.015576503239572048,0.051700253039598465
1194,914,-0.19119420647621155,-0.6465838551521301,-999.9808349609375,0.06259392946958542,0.015576503239572048,0.051700253039598465
1199,914,-0.19119420647621155,-0.6465838551521301,-999.9808349609375,0.06259392946958542,0.015576503239572048,0.051700253039598465
1145,914,-0.19119420647621155,-0.6465838551521301,-999.9808349609375,0.06259392946958542,0.015576503239572048,0.051700253039598465
1116,914,-0.19119420647621155,-0.6465838551521301,-999.9808349609375,0.06259392946958542,0.015576503239572048,0.051700253039598465
1125,914,-0.19119420647621155,-0.6465838551521301,-999.9808349609375,0.06259392946958542,0.015576503239572048,0.051700253039598465
1130,914,-0.19119420647621155,-0.6465838551521301,-999.9808349609375,0.06259392946958542,0.015576503239572048,0.051700253039598465
1195,915,-0.1468454748392105,-0.12013843655586243,-999.999755859375,0.08087398111820221,-0.029832089319825172,0.042243361473083496
1215,915,-0.1468454748392105,-0.12013843655586243,-999.999755859375,0.08087398111820221,-0.029832089319825172,0.042243361473083496
1198,915,-0.1468454748392105,-0.12013843655586243,-999.999755859375,0.08087398111820221,-0.029832089319825172,0.042243361473083496
1188,915,-0.1468454748392105,-0.12013843655586243,-999.999755859375,0.08087398111820221,-0.029832089319825172,0.042243361473083496
1126,915,-0.1468454748392105,-0.12013843655586243,-999.999755859375,0.08087398111820221,-0.029832089319825172,0.042243361473083496
1146,915,-0.1468454748392105,-0.12013843655586243,-999.999755859375,0.08087398111820221,-0.029832089319825172,0.042243361473083496
1129,915,-0.1468454748392105,-0.12013843655586243,-999.999755859375,0.08087398111820221,-0.029832089319825172,0.042243361473083496
1119,915,-0.1468454748392105,-0.12013843655586243,-999.999755859375,0.08087398111820221,-0.029832089319825172,0.042243361473083496
1186,916,-0.20629562437534332,-0.6953533291816711,-1000.0205078125,0.11267989873886108,-0.0178381334990263,0.03145217150449753
1197,916,-0.20629562437534332,-0.6953533291816711,-1000.0205078125,0.11267989873886108,-0.0178381334990263,0.03145217150449753
1196,916,-0.20629562437534332,-0.6953533291816711,-1000.0205078125,0.11267989873886108,-0.0178381334990263,0.03145217150449753
1187,916,-0.20629562437534332,-0.6953533291816711,-1000.0205078125,0.11267989873886108,-0.0178381334990263,0.03145217150449753
1117,916,-0.20629562437534332,-0.6953533291816711,-1000.0205078125,0.11267989873886108,-0.0178381334990263,0.03145217150449753
1128,916,-0.20629562437534332,-0.6953533291816711,-1000.0205078125,0.11267989873886108,-0.0178381334990263,0.03145217150449753
1127,916,-0.20629562437534332,-0.6953533291816711,-1000.0205078125,0.11267989873886108,-0.0178381334990263,0.03145217150449753
1118,916,-0.20629562437534332,-0.6953533291816711,-1000.0205078125,0.11267989873886108,-0.0178381334990263,0.03145217150449753
1225,917,-0.2373971790075302,-0.17783595621585846,-1000.007080078125,-0.1683489978313446,0.0879940614104271,0.1843317151069641
1238,917,-0.2373971790075302,-0.17783595621585846,-1000.007080078125,-0.1683489978313446,0.0879940614104271,0.1843317151069641
1217,917,-0.2373971790075302,-0.17783595621585846,-1000.007080078125,-0.1683489978313446,0.0879940614104271,0.1843317151069641
1228,917,-0.2373971790075302,-0.17783595621585846,-1000.007080078125,-0.1683489978313446,0.0879940614104271,0.1843317151069641
1156,917,-0.2373971790075302,-0.17783595621585846,-1000.007080078125,-0.1683489978313446,0.0879940614104271,0.1843317151069641
1169,917,-0.2373971790075302,-0.17783595621585846,-1000.007080078125,-0.1683489978313446,0.0879940614104271,0.1843317151069641
1148,917,-0.2373971790075302,-0.17783595621585846,-1000.007080078125,-0.1683489978313446,0.0879940614104271,0.1843317151069641
1159,917,-0.2373971790075302,-0.17783595621585846,-1000.007080078125,-0.1683489978313446,0.0879940614104271,0.1843317151069641
1241,918,0.7796628475189209,0.9212472438812256,-999.8458251953125,-0.015781326219439507,-0.0013369150692597032,-0.03410445526242256
1219,918,0.7796628475189209,0.9212472438812256,-999.8458251953125,-0.015781326219439507,-0.0013369150692597032,-0.03410445526242256
1205,918,0.7796628475189209,0.9212472438812256,-999.8458251953125,-0.015781326219439507,-0.0013369150692597032,-0.03410445526242256
1206,918,0.7796628475189209,0.9212472438812256,-999.8458251953125,-0.015781326219439507,-0.0013369150692597032,-0.03410445526242256
1172,918,0.7796628475189209,0.9212472438812256,-999.8458251953125,-0.015781326219439507,-0.0013369150692597032,-0.03410445526242256
1150,918,0.7796628475189209,0.9212472438812256,-999.8458251953125,-0.015781326219439507,-0.0013369150692597032,-0.03410445526242256
1136,918,0.7796628475189209,0.9212472438812256,-999.8458251953125,-0.015781326219439507,-0.0013369150692597032,-0.03410445526242256
1137,918,0.7796628475189209,0.9212472438812256,-999.8458251953125,-0.015781326219439507,-0.0013369150692597032,-0.03410445526242256
1229,919,0.3905026316642761,0.5381549596786499,-999.9301147460938,-0.15524660050868988,-0.17979438602924347,-0.10998207330703735
1226,919,0.3905026316642761,0.5381549596786499,-999.9301147460938,-0.15524660050868988,-0.17979438602924347,-0.10998207330703735
1225,919,0.3905026316642761,0.5381549596786499,-999.9301147460938,-0.15524660050868988,-0.17979438602924347,-0.10998207330703735
1228,919,0.3905026316642761,0.5381549596786499,-999.9301147460938,-0.15524660050868988,-0.17979438602924347,-0.10998207330703735
1160,919,0.3905026316642761,0.5381549596786499,-999.9301147460938,-0.15524660050868988,-0.17979438602924347,-0.10998207330703735
1157,919,0.3905026316642761,0.5381549596786499,-999.9301147460938,-0.15524660050868988,-0.17979438602924347,-0.10998207330703735
1156,919,0.3905026316642761,0.5381549596786499,-999.9301147460938,-0.15524660050868988,-0.17979438602924347,-0.10998207330703735
1159,919,0.3905026316642761,0.5381549596786499,-999.9301147460938,-0.15524660050868988,-0.17979438602924347,-0.10998207330703735
1220,920,-0.5521880984306335,-0.9920517206192017,-1000.11279296875,-0.09698478132486343,0.1473311185836792,0.057795699685811996
1237,920,-0.5521880984306335,-0.9920517206192017,-1000.11279296875,-0.09698478132486343,0.1473311185836792,0.057795699685811996
1225,920,-0.5521880984306335,-0.9920517206192017,-1000.11279296875,-0.09698478132486343,0.1473311185836792,0.057795699685811996
1226,920,-0.5521880984306335,-0.9920517206192017,-1000.11279296875,-0.09698478132486343,0.1473311185836792,0.057795699685811996
1151,920,-0.5521880984306335,-0.9920517206192017,-1000.11279296875,-0.09698478132486343,0.1473311185836792,0.057795699685811996
1168,920,-0.5521880984306335,-0.9920517206192017,-1000.11279296875,-0.09698478132486343,0.1473311185836792,0.057795699685811996
1156,920,-0.5521880984306335,-0.9920517206192017,-1000.11279296875,-0.09698478132486343,0.1473311185836792,0.057795699685811996
1157,920,-0.5521880984306335,-0.9920517206192017,-1000.11279296875,-0.09698478132486343,0.1473311185836792,0.057795699685811996
1200,921,0.3031204640865326,0.2933582365512848,-1000.0728149414062,0.1580469161272049,0.16202190518379211,-0.169253408908844
1213,921,0.3031204640865326,0.2933582365512848,-1000.0728149414062,0.1580469161272049,0.16202190518379211,-0.169253408908844
1238,921,0.3031204640865326,0.2933582365512848,-1000.0728149414062,0.1580469161272049,0.16202190518379211,-0.169253408908844
1225,921,0.3031204640865326,0.2933582365512848,-1000.0728149414062,0.1580469161272049,0.16202190518379211,-0.169253408908844
1131,921,0.3031204640865326,0.2933582365512848,-1000.0728149414062,0.1580469161272049,0.16202190518379211,-0.169253408908844
1144,921,0.3031204640865326,0.2933582365512848,-1000.0728149414062,0.1580469161272049,0.16202190518379211,-0.169253408908844
1169,921,0.3031204640865326,0.2933582365512848,-1000.0728149414062,0.1580469161272049,0.16202190518379211,-0.169253408908844
1156,921,0.3031204640865326,0.2933582365512848,-1000.0728149414062,0.1580469161272049,0.16202190518379211,-0.169253408908844
1240,922,1.2606072425842285,0.5763987898826599,-999.8119506835938,0.2966490685939789,0.017318304628133774,0.10663827508687973
1224,922,1.2606072425842285,0.5763987898826599,-999.8119506835938,0.2966490685939789,0.017318304628133774,0.10663827508687973
1204,922,1.2606072425842285,0.5763987898826599,-999.8119506835938,0.2966490685939789,0.017318304628133774,0.10663827508687973
1212,922,1.2606072425842285,0.5763987898826599,-999.8119506835938,0.2966490685939789,0.017318304628133774,0.10663827508687973
1171,922,1.2606072425842285,0.5763987898826599,-999.8119506835938,0.2966490685939789,0.017318304628133774,0.10663827508687973
1155,922,1.2606072425842285,0.5763987898826599,-999.8119506835938,0.2966490685939789,0.017318304628133774,0.10663827508687973
1135,922,1.2606072425842285,0.5763987898826599,-999.8119506835938,0.2966490685939789,0.017318304628133774,0.10663827508687973
1143,922,1.2606072425842285,0.5763987898826599,-999.8119506835938,0.2966490685939789,0.017318304628133774,0.10663827508687973
1234,923,-0.37485983967781067,-0.5905672311782837,-1000.2073974609375,-0.14771588146686554,-0.44505685567855835,0.27106913924217224
1229,923,-0.37485983967781067,-0.5905672311782837,-1000.2073974609375,-0.14771588146686554,-0.44505685567855835,0.27106913924217224
1208,923,-0.37485983967781067,-0.5905672311782837,-1000.2073974609375,-0.14771588146686554,-0.44505685567855835,0.27106913924217224
1222,923,-0.37485983967781067,-0.5905672311782837,-1000.2073974609375,-0.14771588146686554,-0.44505685567855835,0.27106913924217224
1165,923,-0.37485983967781067,-0.5905672311782837,-1000.2073974609375,-0.14771588146686554,-0.44505685567855835,0.27106913924217224
1160,923,-0.37485983967781067,-0.5905672311782837,-1000.2073974609375,-0.14771588146686554,-0.44505685567855835,0.27106913924217224
1139,923,-0.37485983967781067,-0.5905672311782837,-1000.2073974609375,-0.14771588146686554,-0.44505685567855835,0.27106913924217224
1153,923,-0.37485983967781067,-0.5905672311782837,-1000.2073974609375,-0.14771588146686554,-0.44505685567855835,0.27106913924217224
1208,924,0.5421374440193176,0.27336326241493225,-1000.0311279296875,0.3767203986644745,-0.01704704947769642,-0.02968268096446991
1223,924,0.5421374440193176,0.27336326241493225,-1000.0311279296875,0.3767203986644745,-0.01704704947769642,-0.02968268096446991
1231,924,0.5421374440193176,0.27336326241493225,-1000.0311279296875,0.3767203986644745,-0.01704704947769642,-0.02968268096446991
1232,924,0.5421374440193176,0.27336326241493225,-1000.0311279296875,0.3767203986644745,-0.01704704947769642,-0.02968268096446991
1139,924,0.5421374440193176,0.27336326241493225,-1000.0311279296875,0.3767203986644745,-0.01704704947769642,-0.02968268096446991
1154,924,0.5421374440193176,0.27336326241493225,-1000.0311279296875,0.3767203986644745,-0.01704704947769642,-0.02968268096446991
1162,924,0.5421374440193176,0.27336326241493225,-1000.0311279296875,0.3767203986644745,-0.01704704947769642,-0.02968268096446991
1163,924,0.5421374440193176,0.27336326241493225,-1000.0311279296875,0.3767203986644745,-0.01704704947769642,-0.02968268096446991
1215,925,0.0404062494635582,-0.05203868821263313,-1000.4495239257812,-0.4965144991874695,0.0005785603425465524,-0.16377326846122742
1196,925,0.0404062494635582,-0.05203868821263313,-1000.4495239257812,-0.4965144991874695,0.0005785603425465524,-0.16377326846122742
1235,925,0.0404062494635582,-0.05203868821263313,-1000.4495239257812,-0.4965144991874695,0.0005785603425465524,-0.16377326846122742
1218,925,0.0404062494635582,-0.05203868821263313,-1000.4495239257812,-0.4965144991874695,0.0005785603425465524,-0.16377326846122742
1146,925,0.0404062494635582,-0.05203868821263313,-1000.4495239257812,-0.4965144991874695,0.0005785603425465524,-0.16377326846122742
1127,925,0.0404062494635582,-0.05203868821263313,-1000.4495239257812,-0.4965144991874695,0.0005785603425465524,-0.16377326846122742
1166,925,0.0404062494635582,-0.05203868821263313,-1000.4495239257812,-0.4965144991874695,0.0005785603425465524,-0.16377326846122742
1149,925,0.0404062494635582,-0.05203868821263313,-1000.4495239257812,-0.4965144991874695,0.0005785603425465524,-0.16377326846122742
1242,926,0.5408728718757629,0.8458331823348999,-999.603271484375,-0.09112825244665146,0.09167462587356567,0.17898985743522644
1198,926,0.5408728718757629,0.8458331823348999,-999.603271484375,-0.09112825244665146,0.09167462587356567,0.17898985743522644
1215,926,0.5408728718757629,0.8458331823348999,-999.603271484375,-0.09112825244665146,0.09167462587356567,0.17898985743522644
1218,926,0.5408728718757629,0.8458331823348999,-999.603271484375,-0.09112825244665146,0.09167462587356567,0.17898985743522644
1173,926,0.5408728718757629,0.8458331823348999,-999.603271484375,-0.09112825244665146,0.09167462587356567,0.17898985743522644
1129,926,0.5408728718757629,0.8458331823348999,-999.603271484375,-0.09112825244665146,0.09167462587356567,0.17898985743522644
1146,926,0.5408728718757629,0.8458331823348999,-999.603271484375,-0.09112825244665146,0.09167462587356567,0.17898985743522644
1149,926,0.5408728718757629,0.8458331823348999,-999.603271484375,-0.09112825244665146,0.09167462587356567,0.17898985743522644
1202,927,0.624252200126648,0.3796578347682953,-999.8848266601562,0.09207478910684586,0.17274107038974762,-0.15937532484531403
1203,927,0.624252200126648,0.3796578347682953,-999.8848266601562,0.09207478910684586,0.17274107038974762,-0.15937532484531403
1239,927,0.624252200126648,0.3796578347682953,-999.8848266601562,0.09207478910684586,0.17274107038974762,-0.15937532484531403
1217,927,0.624252200126648,0.3796578347682953,-999.8848266601562,0.09207478910684586,0.17274107038974762,-0.15937532484531403
1133,927,0.624252200126648,0.3796578347682953,-999.8848266601562,0.09207478910684586,0.17274107038974762,-0.15937532484531403
1134,927,0.624252200126648,0.3796578347682953,-999.8848266601562,0.09207478910684586,0.17274107038974762,-0.15937532484531403
1170,927,0.624252200126648,0.3796578347682953,-999.8848266601562,0.09207478910684586,0.17274107038974762,-0.15937532484531403
1148,927,0.624252200126648,0.3796578347682953,-999.8848266601562,0.09207478910684586,0.17274107038974762,-0.15937532484531403
1187,928,-0.24784447252750397,-0.5817469358444214,-1000.005126953125,0.29044628143310547,-0.0041473680175840855,-0.044490136206150055
1196,928,-0.24784447252750397,-0.5817469358444214,-1000.005126953125,0.29044628143310547,-0.0041473680175840855,-0.044490136206150055
1215,928,-0.24784447252750397,-0.5817469358444214,-1000.005126953125,0.29044628143310547,-0.0041473680175840855,-0.044490136206150055
1195,928,-0.24784447252750397,-0.5817469358444214,-1000.005126953125,0.29044628143310547,-0.0041473680175840855,-0.044490136206150055
1118,928,-0.24784447252750397,-0.5817469358444214,-1000.005126953125,0.29044628143310547,-0.0041473680175840855,-0.044490136206150055
1127,928,-0.24784447252750397,-0.5817469358444214,-1000.005126953125,0.29044628143310547,-0.0041473680175840855,-0.044490136206150055
1146,928,-0.24784447252750397,-0.5817469358444214,-1000.005126953125,0.29044628143310547,-0.0041473680175840855,-0.044490136206150055
1126,928,-0.24784447252750397,-0.5817469358444214,-1000.005126953125,0.29044628143310547,-0.0041473680175840855,-0.044490136206150055
1184,929,-0.2647542953491211,-0.967770516872406,-1000.0398559570312,-0.04118553176522255,0.001801753300242126,0.010100595653057098
1230,929,-0.2647542953491211,-0.967770516872406,-1000.0398559570312,-0.04118553176522255,0.001801753300242126,0.010100595653057098
1199,929,-0.2647542953491211,-0.967770516872406,-1000.0398559570312,-0.04118553176522255,0.001801753300242126,0.010100595653057098
1194,929,-0.2647542953491211,-0.967770516872406,-1000.0398559570312,-0.04118553176522255,0.001801753300242126,0.010100595653057098
1115,929,-0.2647542953491211,-0.967770516872406,-1000.0398559570312,-0.04118553176522255,0.001801753300242126,0.010100595653057098
1161,929,-0.2647542953491211,-0.967770516872406,-1000.0398559570312,-0.04118553176522255,0.001801753300242126,0.010100595653057098
1130,929,-0.2647542953491211,-0.967770516872406,-1000.0398559570312,-0.04118553176522255,0.001801753300242126,0.010100595653057098
1125,929,-0.2647542953491211,-0.967770516872406,-1000.0398559570312,-0.04118553176522255,0.001801753300242126,0.010100595653057098
1200,930,-0.34896108508110046,-0.05782121792435646,-1000.010009765625,-0.10829532146453857,-0.026773232966661453,0.04433149844408035
1183,930,-0.34896108508110046,-0.05782121792435646,-1000.010009765625,-0.10829532146453857,-0.026773232966661453,0.04433149844408035
1193,930,-0.34896108508110046,-0.05782121792435646,-1000.010009765625,-0.10829532146453857,-0.026773232966661453,0.04433149844408035
1213,930,-0.34896108508110046,-0.05782121792435646,-1000.010009765625,-0.10829532146453857,-0.026773232966661453,0.04433149844408035
1131,930,-0.34896108508110046,-0.05782121792435646,-1000.010009765625,-0.10829532146453857,-0.026773232966661453,0.04433149844408035
1114,930,-0.34896108508110046,-0.05782121792435646,-1000.010009765625,-0.10829532146453857,-0.026773232966661453,0.04433149844408035
1124,930,-0.34896108508110046,-0.05782121792435646,-1000.010009765625,-0.10829532146453857,-0.026773232966661453,0.04433149844408035
1144,930,-0.34896108508110046,-0.05782121792435646,-1000.010009765625,-0.10829532146453857,-0.026773232966661453,0.04433149844408035
1201,931,-0.3567880392074585,-0.06683335453271866,-999.9780883789062,-0.0030385670252144337,-0.037694595754146576,-0.02343432605266571
1189,931,-0.3567880392074585,-0.06683335453271866,-999.9780883789062,-0.0030385670252144337,-0.037694595754146576,-0.02343432605266571
1188,931,-0.3567880392074585,-0.06683335453271866,-999.9780883789062,-0.0030385670252144337,-0.037694595754146576,-0.02343432605266571
1198,931,-0.3567880392074585,-0.06683335453271866,-999.9780883789062,-0.0030385670252144337,-0.037694595754146576,-0.02343432605266571
1132,931,-0.3567880392074585,-0.06683335453271866,-999.9780883789062,-0.0030385670252144337,-0.037694595754146576,-0.02343432605266571
1120,931,-0.3567880392074585,-0.06683335453271866,-999.9780883789062,-0.0030385670252144337,-0.037694595754146576,-0.02343432605266571
1119,931,-0.3567880392074585,-0.06683335453271866,-999.9780883789062,-0.0030385670252144337,-0.037694595754146576,-0.02343432605266571
1129,931,-0.3567880392074585,-0.06683335453271866,-999.9780883789062,-0.0030385670252144337,-0.037694595754146576,-0.02343432605266571
1213,932,-0.2220001220703125,0.04813940078020096,-999.9715576171875,0.041590508073568344,0.04039643332362175,-0.0298893004655838
1193,932,-0.2220001220703125,0.04813940078020096,-999.9715576171875,0.041590508073568344,0.04039643332362175,-0.0298893004655838
1182,932,-0.2220001220703125,0.04813940078020096,-999.9715576171875,0.041590508073568344,0.04039643332362175,-0.0298893004655838
1202,932,-0.2220001220703125,0.04813940078020096,-999.9715576171875,0.041590508073568344,0.04039643332362175,-0.0298893004655838
1144,932,-0.2220001220703125,0.04813940078020096,-999.9715576171875,0.041590508073568344,0.04039643332362175,-0.0298893004655838
1124,932,-0.2220001220703125,0.04813940078020096,-999.9715576171875,0.041590508073568344,0.04039643332362175,-0.0298893004655838
1113,932,-0.2220001220703125,0.04813940078020096,-999.9715576171875,0.041590508073568344,0.04039643332362175,-0.0298893004655838
1133,932,-0.2220001220703125,0.04813940078020096,-999.9715576171875,0.041590508073568344,0.04039643332362175,-0.0298893004655838
1237,933,0.2492436319589615,0.3833431601524353,-999.8721923828125,0.3654395639896393,-0.11264796555042267,0.06674541532993317
1230,933,0.2492436319589615,0.3833431601524353,-999.8721923828125,0.3654395639896393,-0.11264796555042267,0.06674541532993317
1200,933,0.2492436319589615,0.3833431601524353,-999.8721923828125,0.3654395639896393,-0.11264796555042267,0.06674541532993317
1225,933,0.2492436319589615,0.3833431601524353,-999.8721923828125,0.3654395639896393,-0.11264796555042267,0.06674541532993317
1168,933,0.2492436319589615,0.3833431601524353,-999.8721923828125,0.3654395639896393,-0.11264796555042267,0.06674541532993317
1161,933,0.2492436319589615,0.3833431601524353,-999.8721923828125,0.3654395639896393,-0.11264796555042267,0.06674541532993317
1131,933,0.2492436319589615,0.3833431601524353,-999.8721923828125,0.3654395639896393,-0.11264796555042267,0.06674541532993317
1156,933,0.2492436319589615,0.3833431601524353,-999.8721923828125,0.3654395639896393,-0.11264796555042267,0.06674541532993317
1202,934,-0.2398856282234192,-0.0008707653032615781,-1000.0263061523438,0.09609471261501312,-0.008990933187305927,0.05773879215121269
1182,934,-0.2398856282234192,-0.0008707653032615781,-1000.0263061523438,0.09609471261501312,-0.008990933187305927,0.05773879215121269
1181,934,-0.2398856282234192,-0.0008707653032615781,-1000.0263061523438,0.09609471261501312,-0.008990933187305927,0.05773879215121269
1203,934,-0.2398856282234192,-0.0008707653032615781,-1000.0263061523438,0.09609471261501312,-0.008990933187305927,0.05773879215121269
1133,934,-0.2398856282234192,-0.0008707653032615781,-1000.0263061523438,0.09609471261501312,-0.008990933187305927,0.05773879215121269
1113,934,-0.2398856282234192,-0.0008707653032615781,-1000.0263061523438,0.09609471261501312,-0.008990933187305927,0.05773879215121269
1112,934,-0.2398856282234192,-0.0008707653032615781,-1000.0263061523438,0.09609471261501312,-0.008990933187305927,0.05773879215121269
1134,934,-0.2398856282234192,-0.0008707653032615781,-1000.0263061523438,0.09609471261501312,-0.008990933187305927,0.05773879215121269
1203,935,-0.44650381803512573,-0.11086061596870422,-999.9641723632812,-0.04900712892413139,0.011826220899820328,-0.052844829857349396
1181,935,-0.44650381803512573,-0.11086061596870422,-999.9641723632812,-0.04900712892413139,0.011826220899820328,-0.052844829857349396
1180,935,-0.44650381803512573,-0.11086061596870422,-999.9641723632812,-0.04900712892413139,0.011826220899820328,-0.052844829857349396
1204,935,-0.44650381803512573,-0.11086061596870422,-999.9641723632812,-0.04900712892413139,0.011826220899820328,-0.052844829857349396
1134,935,-0.44650381803512573,-0.11086061596870422,-999.9641723632812,-0.04900712892413139,0.011826220899820328,-0.052844829857349396
1112,935,-0.44650381803512573,-0.11086061596870422,-999.9641723632812,-0.04900712892413139,0.011826220899820328,-0.052844829857349396
1111,935,-0.44650381803512573,-0.11086061596870422,-999.9641723632812,-0.04900712892413139,0.011826220899820328,-0.052844829857349396
1135,935,-0.44650381803512573,-0.11086061596870422,-999.9641723632812,-0.04900712892413139,0.011826220899820328,-0.052844829857349396
1234,936,0.22649356722831726,-0.48569977283477783,-999.8410034179688,-0.14765824377536774,0.029153941199183464,-0.37354549765586853
1222,936,0.22649356722831726,-0.48569977283477783,-999.8410034179688,-0.14765824377536774,0.029153941199183464,-0.37354549765586853
1233,936,0.22649356722831726,-0.48569977283477783,-999.8410034179688,-0.14765824377536774,0.029153941199183464,-0.37354549765586853
1227,936,0.22649356722831726,-0.48569977283477783,-999.8410034179688,-0.14765824377536774,0.029153941199183464,-0.37354549765586853
1165,936,0.22649356722831726,-0.48569977283477783,-999.8410034179688,-0.14765824377536774,0.029153941199183464,-0.37354549765586853
1153,936,0.22649356722831726,-0.48569977283477783,-999.8410034179688,-0.14765824377536774,0.029153941199183464,-0.37354549765586853
1164,936,0.22649356722831726,-0.48569977283477783,-999.8410034179688,-0.14765824377536774,0.029153941199183464,-0.37354549765586853
1158,936,0.22649356722831726,-0.48569977283477783,-999.8410034179688,-0.14765824377536774,0.029153941199183464,-0.37354549765586853
1189,937,-0.38823509216308594,-0.17863692343235016,-1000.0135498046875,-0.19671864807605743,-0.027160728350281715,0.052064068615436554
1201,937,-0.38823509216308594,-0.17863692343235016,-1000.0135498046875,-0.19671864807605743,-0.027160728350281715,0.052064068615436554
1209,937,-0.38823509216308594,-0.17863692343235016,-1000.0135498046875,-0.19671864807605743,-0.027160728350281715,0.052064068615436554
1174,937,-0.38823509216308594,-0.17863692343235016,-1000.0135498046875,-0.19671864807605743,-0.027160728350281715,0.052064068615436554
1120,937,-0.38823509216308594,-0.17863692343235016,-1000.0135498046875,-0.19671864807605743,-0.027160728350281715,0.052064068615436554
1132,937,-0.38823509216308594,-0.17863692343235016,-1000.0135498046875,-0.19671864807605743,-0.027160728350281715,0.052064068615436554
1140,937,-0.38823509216308594,-0.17863692343235016,-1000.0135498046875,-0.19671864807605743,-0.027160728350281715,0.052064068615436554
1105,937,-0.38823509216308594,-0.17863692343235016,-1000.0135498046875,-0.19671864807605743,-0.027160728350281715,0.052064068615436554
1204,938,-0.42889443039894104,0.013262760825455189,-1000.0302734375,-0.030027072876691818,0.027987336739897728,0.01613023318350315
1180,938,-0.42889443039894104,0.013262760825455189,-1000.0302734375,-0.030027072876691818,0.027987336739897728,0.01613023318350315
1192,938,-0.42889443039894104,0.013262760825455189,-1000.0302734375,-0.030027072876691818,0.027987336739897728,0.01613023318350315
1212,938,-0.42889443039894104,0.013262760825455189,-1000.0302734375,-0.030027072876691818,0.027987336739897728,0.01613023318350315
1135,938,-0.42889443039894104,0.013262760825455189,-1000.0302734375,-0.030027072876691818,0.027987336739897728,0.01613023318350315
1111,938,-0.42889443039894104,0.013262760825455189,-1000.0302734375,-0.030027072876691818,0.027987336739897728,0.01613023318350315
1123,938,-0.42889443039894104,0.013262760825455189,-1000.0302734375,-0.030027072876691818,0.027987336739897728,0.01613023318350315
1143,938,-0.42889443039894104,0.013262760825455189,-1000.0302734375,-0.030027072876691818,0.027987336739897728,0.01613023318350315
1212,939,-0.45147159695625305,-0.13743852078914642,-999.9580688476562,0.17748446762561798,-0.002581413369625807,-0.04584723711013794
1192,939,-0.45147159695625305,-0.13743852078914642,-999.9580688476562,0.17748446762561798,-0.002581413369625807,-0.04584723711013794
1179,939,-0.45147159695625305,-0.13743852078914642,-999.9580688476562,0.17748446762561798,-0.002581413369625807,-0.04584723711013794
1205,939,-0.45147159695625305,-0.13743852078914642,-999.9580688476562,0.17748446762561798,-0.002581413369625807,-0.04584723711013794
1143,939,-0.45147159695625305,-0.13743852078914642,-999.9580688476562,0.17748446762561798,-0.002581413369625807,-0.04584723711013794
1123,939,-0.45147159695625305,-0.13743852078914642,-999.9580688476562,0.17748446762561798,-0.002581413369625807,-0.04584723711013794
1110,939,-0.45147159695625305,-0.13743852078914642,-999.9580688476562,0.17748446762561798,-0.002581413369625807,-0.04584723711013794
1136,939,-0.45147159695625305,-0.13743852078914642,-999.9580688476562,0.17748446762561798,-0.002581413369625807,-0.04584723711013794
1205,940,-0.29984983801841736,-0.47162213921546936,-1000.0439453125,0.18963538110256195,0.01637730933725834,0.04330119863152504
1179,940,-0.29984983801841736,-0.47162213921546936,-1000.0439453125,0.18963538110256195,0.01637730933725834,0.04330119863152504
1178,940,-0.29984983801841736,-0.47162213921546936,-1000.0439453125,0.18963538110256195,0.01637730933725834,0.04330119863152504
1206,940,-0.29984983801841736,-0.47162213921546936,-1000.0439453125,0.18963538110256195,0.01637730933725834,0.04330119863152504
1136,940,-0.29984983801841736,-0.47162213921546936,-1000.0439453125,0.18963538110256195,0.01637730933725834,0.04330119863152504
1110,940,-0.29984983801841736,-0.47162213921546936,-1000.0439453125,0.18963538110256195,0.01637730933725834,0.04330119863152504
1109,940,-0.29984983801841736,-0.47162213921546936,-1000.0439453125,0.18963538110256195,0.01637730933725834,0.04330119863152504
1137,940,-0.29984983801841736,-0.47162213921546936,-1000.0439453125,0.18963538110256195,0.01637730933725834,0.04330119863152504
1206,941,-0.05626080185174942,-0.37726035714149475,-999.9564819335938,0.021575774997472763,0.016792071983218193,-0.05668020620942116
1178,941,-0.05626080185174942,-0.37726035714149475,-999.9564819335938,0.021575774997472763,0.016792071983218193,-0.05668020620942116
1191,941,-0.05626080185174942,-0.37726035714149475,-999.9564819335938,0.021575774997472763,0.016792071983218193,-0.05668020620942116
1211,941,-0.05626080185174942,-0.37726035714149475,-999.9564819335938,0.021575774997472763,0.016792071983218193,-0.05668020620942116
1137,941,-0.05626080185174942,-0.37726035714149475,-999.9564819335938,0.021575774997472763,0.016792071983218193,-0.05668020620942116
1109,941,-0.05626080185174942,-0.37726035714149475,-999.9564819335938,0.021575774997472763,0.016792071983218193,-0.05668020620942116
1122,941,-0.05626080185174942,-0.37726035714149475,-999.9564819335938,0.021575774997472763,0.016792071983218193,-0.05668020620942116
1142,941,-0.05626080185174942,-0.37726035714149475,-999.9564819335938,0.021575774997472763,0.016792071983218193,-0.05668020620942116
1211,942,-0.11152645945549011,-0.32547953724861145,-1000.0272827148438,-0.04848505184054375,0.005356987006962299,-0.0344071201980114
1191,942,-0.11152645945549011,-0.32547953724861145,-1000.0272827148438,-0.04848505184054375,0.005356987006962299,-0.0344071201980114
1177,942,-0.11152645945549011,-0.32547953724861145,-1000.0272827148438,-0.04848505184054375,0.005356987006962299,-0.0344071201980114
1207,942,-0.11152645945549011,-0.32547953724861145,-1000.0272827148438,-0.04848505184054375,0.005356987006962299,-0.0344071201980114
1142,942,-0.11152645945549011,-0.32547953724861145,-1000.0272827148438,-0.04848505184054375,0.005356987006962299,-0.0344071201980114
1122,942,-0.11152645945549011,-0.32547953724861145,-1000.0272827148438,-0.04848505184054375,0.005356987006962299,-0.0344071201980114
1108,942,-0.11152645945549011,-0.32547953724861145,-1000.0272827148438,-0.04848505184054375,0.005356987006962299,-0.0344071201980114
1138,942,-0.11152645945549011,-0.32547953724861145,-1000.0272827148438,-0.04848505184054375,0.005356987006962299,-0.0344071201980114
1231,943,-0.6712923645973206,-0.7079747915267944,-1000.0317993164062,-0.29024240374565125,0.028886035084724426,-0.052055977284908295
1176,943,-0.6712923645973206,-0.7079747915267944,-1000.0317993164062,-0.29024240374565125,0.028886035084724426,-0.052055977284908295
1175,943,-0.6712923645973206,-0.7079747915267944,-1000.0317993164062,-0.29024240374565125,0.028886035084724426,-0.052055977284908295
1232,943,-0.6712923645973206,-0.7079747915267944,-1000.0317993164062,-0.29024240374565125,0.028886035084724426,-0.052055977284908295
1162,943,-0.6712923645973206,-0.7079747915267944,-1000.0317993164062,-0.29024240374565125,0.028886035084724426,-0.052055977284908295
1107,943,-0.6712923645973206,-0.7079747915267944,-1000.0317993164062,-0.29024240374565125,0.028886035084724426,-0.052055977284908295
1106,943,-0.6712923645973206,-0.7079747915267944,-1000.0317993164062,-0.29024240374565125,0.028886035084724426,-0.052055977284908295
1163,943,-0.6712923645973206,-0.7079747915267944,-1000.0317993164062,-0.29024240374565125,0.028886035084724426,-0.052055977284908295
1210,944,-0.03914099559187889,-0.174480602145195,-999.9829711914062,-0.09236548095941544,-0.02025764063000679,-0.05394118279218674
1190,944,-0.03914099559187889,-0.174480602145195,-999.9829711914062,-0.09236548095941544,-0.02025764063000679,-0.05394118279218674
1174,944,-0.03914099559187889,-0.174480602145195,-999.9829711914062,-0.09236548095941544,-0.02025764063000679,-0.05394118279218674
1209,944,-0.03914099559187889,-0.174480602145195,-999.9829711914062,-0.09236548095941544,-0.02025764063000679,-0.05394118279218674
1141,944,-0.03914099559187889,-0.174480602145195,-999.9829711914062,-0.09236548095941544,-0.02025764063000679,-0.05394118279218674
1121,944,-0.03914099559187889,-0.174480602145195,-999.9829711914062,-0.09236548095941544,-0.02025764063000679,-0.05394118279218674
1105,944,-0.03914099559187889,-0.174480602145195,-999.9829711914062,-0.09236548095941544,-0.02025764063000679,-0.05394118279218674
1140,944,-0.03914099559187889,-0.174480602145195,-999.9829711914062,-0.09236548095941544,-0.02025764063000679,-0.05394118279218674
1233,945,1.030227541923523,1.196121096611023,-999.5866088867188,0.2120189219713211,0.003568660467863083,0.13449756801128387
1209,945,1.030227541923523,1.196121096611023,-999.5866088867188,0.2120189219713211,0.003568660467863083,0.13449756801128387
1201,945,1.030227541923523,1.196121096611023,-999.5866088867188,0.2120189219713211,0.003568660467863083,0.13449756801128387
1216,945,1.030227541923523,1.196121096611023,-999.5866088867188,0.2120189219713211,0.003568660467863083,0.13449756801128387
1164,945,1.030227541923523,1.196121096611023,-999.5866088867188,0.2120189219713211,0.003568660467863083,0.13449756801128387
1140,945,1.030227541923523,1.196121096611023,-999.5866088867188,0.2120189219713211,0.003568660467863083,0.13449756801128387
1132,945,1.030227541923523,1.196121096611023,-999.5866088867188,0.2120189219713211,0.003568660467863083,0.13449756801128387
1147,945,1.030227541923523,1.196121096611023,-999.5866088867188,0.2120189219713211,0.003568660467863083,0.13449756801128387
1232,946,0.4852612018585205,1.0584717988967896,-999.7894287109375,0.1267532855272293,0.08198121190071106,0.06725377589464188
1210,946,0.4852612018585205,1.0584717988967896,-999.7894287109375,0.1267532855272293,0.08198121190071106,0.06725377589464188
1222,946,0.4852612018585205,1.0584717988967896,-999.7894287109375,0.1267532855272293,0.08198121190071106,0.06725377589464188
1208,946,0.4852612018585205,1.0584717988967896,-999.7894287109375,0.1267532855272293,0.08198121190071106,0.06725377589464188
1163,946,0.4852612018585205,1.0584717988967896,-999.7894287109375,0.1267532855272293,0.08198121190071106,0.06725377589464188
1141,946,0.4852612018585205,1.0584717988967896,-999.7894287109375,0.1267532855272293,0.08198121190071106,0.06725377589464188
1153,946,0.4852612018585205,1.0584717988967896,-999.7894287109375,0.1267532855272293,0.08198121190071106,0.06725377589464188
1139,946,0.4852612018585205,1.0584717988967896,-999.7894287109375,0.1267532855272293,0.08198121190071106,0.06725377589464188
1207,947,-0.2256561517715454,-0.3881383538246155,-999.9901733398438,-0.2605421543121338,0.0008373651653528214,0.0020733000710606575
1177,947,-0.2256561517715454,-0.3881383538246155,-999.9901733398438,-0.2605421543121338,0.0008373651653528214,0.0020733000710606575
1176,947,-0.2256561517715454,-0.3881383538246155,-999.9901733398438,-0.2605421543121338,0.0008373651653528214,0.0020733000710606575
1231,947,-0.2256561517715454,-0.3881383538246155,-999.9901733398438,-0.2605421543121338,0.0008373651653528214,0.0020733000710606575
1138,947,-0.2256561517715454,-0.3881383538246155,-999.9901733398438,-0.2605421543121338,0.0008373651653528214,0.0020733000710606575
1108,947,-0.2256561517715454,-0.3881383538246155,-999.9901733398438,-0.2605421543121338,0.0008373651653528214,0.0020733000710606575
1107,947,-0.2256561517715454,-0.3881383538246155,-999.9901733398438,-0.2605421543121338,0.0008373651653528214,0.0020733000710606575
1162,947,-0.2256561517715454,-0.3881383538246155,-999.9901733398438,-0.2605421543121338,0.0008373651653528214,0.0020733000710606575
1216,948,0.1229800432920456,-0.8054494857788086,-1000.4696655273438,0.0030125598423182964,0.2845158576965332,-0.3022979497909546
1201,948,0.1229800432920456,-0.8054494857788086,-1000.4696655273438,0.0030125598423182964,0.2845158576965332,-0.3022979497909546
1198,948,0.1229800432920456,-0.8054494857788086,-1000.4696655273438,0.0030125598423182964,0.2845158576965332,-0.3022979497909546
1242,948,0.1229800432920456,-0.8054494857788086,-1000.4696655273438,0.0030125598423182964,0.2845158576965332,-0.3022979497909546
1147,948,0.1229800432920456,-0.8054494857788086,-1000.4696655273438,0.0030125598423182964,0.2845158576965332,-0.3022979497909546
1132,948,0.1229800432920456,-0.8054494857788086,-1000.4696655273438,0.0030125598423182964,0.2845158576965332,-0.3022979497909546
1129,948,0.1229800432920456,-0.8054494857788086,-1000.4696655273438,0.0030125598423182964,0.2845158576965332,-0.3022979497909546
1173,948,0.1229800432920456,-0.8054494857788086,-1000.4696655273438,0.0030125598423182964,0.2845158576965332,-0.3022979497909546
1227,949,0.05058085545897484,0.2441914826631546,-999.941650390625,0.37879738211631775,-0.037669237703084946,-0.08304088562726974
1242,949,0.05058085545897484,0.2441914826631546,-999.941650390625,0.37879738211631775,-0.037669237703084946,-0.08304088562726974
1218,949,0.05058085545897484,0.2441914826631546,-999.941650390625,0.37879738211631775,-0.037669237703084946,-0.08304088562726974
1226,949,0.05058085545897484,0.2441914826631546,-999.941650390625,0.37879738211631775,-0.037669237703084946,-0.08304088562726974
1158,949,0.05058085545897484,0.2441914826631546,-999.941650390625,0.37879738211631775,-0.037669237703084946,-0.08304088562726974
1173,949,0.05058085545897484,0.2441914826631546,-999.941650390625,0.37879738211631775,-0.037669237703084946,-0.08304088562726974
1149,949,0.05058085545897484,0.2441914826631546,-999.941650390625,0.37879738211631775,-0.037669237703084946,-0.08304088562726974
1157,949,0.05058085545897484,0.2441914826631546,-999.941650390625,0.37879738211631775,-0.037669237703084946,-0.08304088562726974
1197,950,-0.021061817184090614,0.48022276163101196,-1000.4131469726562,-0.19295231997966766,0.09259101748466492,-0.17326486110687256
1214,950,-0.021061817184090614,0.48022276163101196,-1000.4131469726562,-0.19295231997966766,0.09259101748466492,-0.17326486110687256
1236,950,-0.021061817184090614,0.48022276163101196,-1000.4131469726562,-0.19295231997966766,0.09259101748466492,-0.17326486110687256
1221,950,-0.021061817184090614,0.48022276163101196,-1000.4131469726562,-0.19295231997966766,0.09259101748466492,-0.17326486110687256
1128,950,-0.021061817184090614,0.48022276163101196,-1000.4131469726562,-0.19295231997966766,0.09259101748466492,-0.17326486110687256
1145,950,-0.021061817184090614,0.48022276163101196,-1000.4131469726562,-0.19295231997966766,0.09259101748466492,-0.17326486110687256
1167,950,-0.021061817184090614,0.48022276163101196,-1000.4131469726562,-0.19295231997966766,0.09259101748466492,-0.17326486110687256
1152,950,-0.021061817184090614,0.48022276163101196,-1000.4131469726562,-0.19295231997966766,0.09259101748466492,-0.17326486110687256
1221,951,0.19739270210266113,-0.8300928473472595,-999.9911499023438,-0.019059283658862114,-0.05914849415421486,0.2238740772008896
1236,951,0.19739270210266113,-0.8300928473472595,-999.9911499023438,-0.019059283658862114,-0.05914849415421486,0.2238740772008896
1220,951,0.19739270210266113,-0.8300928473472595,-999.9911499023438,-0.019059283658862114,-0.05914849415421486,0.2238740772008896
1226,951,0.19739270210266113,-0.8300928473472595,-999.9911499023438,-0.019059283658862114,-0.05914849415421486,0.2238740772008896
1152,951,0.19739270210266113,-0.8300928473472595,-999.9911499023438,-0.019059283658862114,-0.05914849415421486,0.2238740772008896
1167,951,0.19739270210266113,-0.8300928473472595,-999.9911499023438,-0.019059283658862114,-0.05914849415421486,0.2238740772008896
1151,951,0.19739270210266113,-0.8300928473472595,-999.9911499023438,-0.019059283658862114,-0.05914849415421486,0.2238740772008896
1157,951,0.19739270210266113,-0.8300928473472595,-999.9911499023438,-0.019059283658862114,-0.05914849415421486,0.2238740772008896
1223,952,0.5099050402641296,0.7388067841529846,-999.9102172851562,0.19862620532512665,-0.028758568689227104,0.12780404090881348
1211,952,0.5099050402641296,0.7388067841529846,-999.9102172851562,0.19862620532512665,-0.028758568689227104,0.12780404090881348
1207,952,0.5099050402641296,0.7388067841529846,-999.9102172851562,0.19862620532512665,-0.028758568689227104,0.12780404090881348
1231,952,0.5099050402641296,0.7388067841529846,-999.9102172851562,0.19862620532512665,-0.028758568689227104,0.12780404090881348
1154,952,0.5099050402641296,0.7388067841529846,-999.9102172851562,0.19862620532512665,-0.028758568689227104,0.12780404090881348
1142,952,0.5099050402641296,0.7388067841529846,-999.9102172851562,0.19862620532512665,-0.028758568689227104,0.12780404090881348
1138,952,0.5099050402641296,0.7388067841529846,-999.9102172851562,0.19862620532512665,-0.028758568689227104,0.12780404090881348
1162,952,0.5099050402641296,0.7388067841529846,-999.9102172851562,0.19862620532512665,-0.028758568689227104,0.12780404090881348
1221,953,-0.5803659558296204,-0.8844139575958252,-1000.1328125,0.12247424572706223,-0.19068975746631622,-0.06736583262681961
1226,953,-0.5803659558296204,-0.8844139575958252,-1000.1328125,0.12247424572706223,-0.19068975746631622,-0.06736583262681961
1218,953,-0.5803659558296204,-0.8844139575958252,-1000.1328125,0.12247424572706223,-0.19068975746631622,-0.06736583262681961
1235,953,-0.5803659558296204,-0.8844139575958252,-1000.1328125,0.12247424572706223,-0.19068975746631622,-0.06736583262681961
1152,953,-0.5803659558296204,-0.8844139575958252,-1000.1328125,0.12247424572706223,-0.19068975746631622,-0.06736583262681961
1157,953,-0.5803659558296204,-0.8844139575958252,-1000.1328125,0.12247424572706223,-0.19068975746631622,-0.06736583262681961
1149,953,-0.5803659558296204,-0.8844139575958252,-1000.1328125,0.12247424572706223,-0.19068975746631622,-0.06736583262681961
1166,953,-0.5803659558296204,-0.8844139575958252,-1000.1328125,0.12247424572706223,-0.19068975746631622,-0.06736583262681961
1199,954,0.29513537883758545,1.2182929515838623,-1000.1099243164062,-0.11242350935935974,-0.012688933871686459,-0.11180464178323746
1230,954,0.29513537883758545,1.2182929515838623,-1000.1099243164062,-0.11242350935935974,-0.012688933871686459,-0.11180464178323746
1237,954,0.29513537883758545,1.2182929515838623,-1000.1099243164062,-0.11242350935935974,-0.012688933871686459,-0.11180464178323746
1220,954,0.29513537883758545,1.2182929515838623,-1000.1099243164062,-0.11242350935935974,-0.012688933871686459,-0.11180464178323746
1130,954,0.29513537883758545,1.2182929515838623,-1000.1099243164062,-0.11242350935935974,-0.012688933871686459,-0.11180464178323746
1161,954,0.29513537883758545,1.2182929515838623,-1000.1099243164062,-0.11242350935935974,-0.012688933871686459,-0.11180464178323746
1168,954,0.29513537883758545,1.2182929515838623,-1000.1099243164062,-0.11242350935935974,-0.012688933871686459,-0.11180464178323746
1151,954,0.29513537883758545,1.2182929515838623,-1000.1099243164062,-0.11242350935935974,-0.012688933871686459,-0.11180464178323746
1241,955,-0.5584970712661743,-0.6264768242835999,-999.9696655273438,-0.17062634229660034,0.2029268443584442,-0.2361743450164795
1223,955,-0.5584970712661743,-0.6264768242835999,-999.9696655273438,-0.17062634229660034,0.2029268443584442,-0.2361743450164795
1208,955,-0.5584970712661743,-0.6264768242835999,-999.9696655273438,-0.17062634229660034,0.2029268443584442,-0.2361743450164795
1229,955,-0.5584970712661743,-0.6264768242835999,-999.9696655273438,-0.17062634229660034,0.2029268443584442,-0.2361743450164795
1172,955,-0.5584970712661743,-0.6264768242835999,-999.9696655273438,-0.17062634229660034,0.2029268443584442,-0.2361743450164795
1154,955,-0.5584970712661743,-0.6264768242835999,-999.9696655273438,-0.17062634229660034,0.2029268443584442,-0.2361743450164795
1139,955,-0.5584970712661743,-0.6264768242835999,-999.9696655273438,-0.17062634229660034,0.2029268443584442,-0.2361743450164795
1160,955,-0.5584970712661743,-0.6264768242835999,-999.9696655273438,-0.17062634229660034,0.2029268443584442,-0.2361743450164795
1217,956,-1.0554522275924683,0.14672689139842987,-1000.0444946289062,-0.04381456598639488,0.17057247459888458,0.059654463082551956
1239,956,-1.0554522275924683,0.14672689139842987,-1000.0444946289062,-0.04381456598639488,0.17057247459888458,0.059654463082551956
1224,956,-1.0554522275924683,0.14672689139842987,-1000.0444946289062,-0.04381456598639488,0.17057247459888458,0.059654463082551956
1228,956,-1.0554522275924683,0.14672689139842987,-1000.0444946289062,-0.04381456598639488,0.17057247459888458,0.059654463082551956
1148,956,-1.0554522275924683,0.14672689139842987,-1000.0444946289062,-0.04381456598639488,0.17057247459888458,0.059654463082551956
1170,956,-1.0554522275924683,0.14672689139842987,-1000.0444946289062,-0.04381456598639488,0.17057247459888458,0.059654463082551956
1155,956,-1.0554522275924683,0.14672689139842987,-1000.0444946289062,-0.04381456598639488,0.17057247459888458,0.059654463082551956
1159,956,-1.0554522275924683,0.14672689139842987,-1000.0444946289062,-0.04381456598639488,0.17057247459888458,0.059654463082551956
1240,957,-0.10874030739068985,-0.22598569095134735,-1000.1939086914062,-0.6008602976799011,-0.11323791742324829,0.05687405541539192
1212,957,-0.10874030739068985,-0.22598569095134735,-1000.1939086914062,-0.6008602976799011,-0.11323791742324829,0.05687405541539192
1205,957,-0.10874030739068985,-0.22598569095134735,-1000.1939086914062,-0.6008602976799011,-0.11323791742324829,0.05687405541539192
1219,957,-0.10874030739068985,-0.22598569095134735,-1000.1939086914062,-0.6008602976799011,-0.11323791742324829,0.05687405541539192
1171,957,-0.10874030739068985,-0.22598569095134735,-1000.1939086914062,-0.6008602976799011,-0.11323791742324829,0.05687405541539192
1143,957,-0.10874030739068985,-0.22598569095134735,-1000.1939086914062,-0.6008602976799011,-0.11323791742324829,0.05687405541539192
1136,957,-0.10874030739068985,-0.22598569095134735,-1000.1939086914062,-0.6008602976799011,-0.11323791742324829,0.05687405541539192
1150,957,-0.10874030739068985,-0.22598569095134735,-1000.1939086914062,-0.6008602976799011,-0.11323791742324829,0.05687405541539192
1229,958,0.27092602849006653,-0.29400378465652466,-1000.0321044921875,0.33075466752052307,-0.07028930634260178,0.13841155171394348
1228,958,0.27092602849006653,-0.29400378465652466,-1000.0321044921875,0.33075466752052307,-0.07028930634260178,0.13841155171394348
1219,958,0.27092602849006653,-0.29400378465652466,-1000.0321044921875,0.33075466752052307,-0.07028930634260178,0.13841155171394348
1241,958,0.27092602849006653,-0.29400378465652466,-1000.0321044921875,0.33075466752052307,-0.07028930634260178,0.13841155171394348
1160,958,0.27092602849006653,-0.29400378465652466,-1000.0321044921875,0.33075466752052307,-0.07028930634260178,0.13841155171394348
1159,958,0.27092602849006653,-0.29400378465652466,-1000.0321044921875,0.33075466752052307,-0.07028930634260178,0.13841155171394348
1150,958,0.27092602849006653,-0.29400378465652466,-1000.0321044921875,0.33075466752052307,-0.07028930634260178,0.13841155171394348
1172,958,0.27092602849006653,-0.29400378465652466,-1000.0321044921875,0.33075466752052307,-0.07028930634260178,0.13841155171394348
1229,959,0.11120021343231201,0.660040557384491,-999.9494018554688,-0.020946906879544258,0.4495614469051361,0.1141042485833168
1234,959,0.11120021343231201,0.660040557384491,-999.9494018554688,-0.020946906879544258,0.4495614469051361,0.1141042485833168
1227,959,0.11120021343231201,0.660040557384491,-999.9494018554688,-0.020946906879544258,0.4495614469051361,0.1141042485833168
1226,959,0.11120021343231201,0.660040557384491,-999.9494018554688,-0.020946906879544258,0.4495614469051361,0.1141042485833168
1160,959,0.11120021343231201,0.660040557384491,-999.9494018554688,-0.020946906879544258,0.4495614469051361,0.1141042485833168
1165,959,0.11120021343231201,0.660040557384491,-999.9494018554688,-0.020946906879544258,0.4495614469051361,0.1141042485833168
1158,959,0.11120021343231201,0.660040557384491,-999.9494018554688,-0.020946906879544258,0.4495614469051361,0.1141042485833168
1157,959,0.11120021343231201,0.660040557384491,-999.9494018554688,-0.020946906879544258,0.4495614469051361,0.1141042485833168
1219,960,-0.8372398018836975,-0.5191274285316467,-1000.003173828125,0.14298981428146362,0.1797858476638794,-0.2645294666290283
1228,960,-0.8372398018836975,-0.5191274285316467,-1000.003173828125,0.14298981428146362,0.1797858476638794,-0.2645294666290283
1224,960,-0.8372398018836975,-0.5191274285316467,-1000.003173828125,0.14298981428146362,0.1797858476638794,-0.2645294666290283
1240,960,-0.8372398018836975,-0.5191274285316467,-1000.003173828125,0.14298981428146362,0.1797858476638794,-0.2645294666290283
1150,960,-0.8372398018836975,-0.5191274285316467,-1000.003173828125,0.14298981428146362,0.1797858476638794,-0.2645294666290283
1159,960,-0.8372398018836975,-0.5191274285316467,-1000.003173828125,0.14298981428146362,0.1797858476638794,-0.2645294666290283
1155,960,-0.8372398018836975,-0.5191274285316467,-1000.003173828125,0.14298981428146362,0.1797858476638794,-0.2645294666290283
1171,960,-0.8372398018836975,-0.5191274285316467,-1000.003173828125,0.14298981428146362,0.1797858476638794,-0.2645294666290283
1230,961,-0.19746361672878265,-0.5521986484527588,-999.9844970703125,-0.18643590807914734,0.02342446707189083,-0.01575046218931675
1184,961,-0.19746361672878265,-0.5521986484527588,-999.9844970703125,-0.18643590807914734,0.02342446707189083,-0.01575046218931675
1183,961,-0.19746361672878265,-0.5521986484527588,-999.9844970703125,-0.18643590807914734,0.02342446707189083,-0.01575046218931675
1200,961,-0.19746361672878265,-0.5521986484527588,-999.9844970703125,-0.18643590807914734,0.02342446707189083,-0.01575046218931675
1161,961,-0.19746361672878265,-0.5521986484527588,-999.9844970703125,-0.18643590807914734,0.02342446707189083,-0.01575046218931675
1115,961,-0.19746361672878265,-0.5521986484527588,-999.9844970703125,-0.18643590807914734,0.02342446707189083,-0.01575046218931675
1114,961,-0.19746361672878265,-0.5521986484527588,-999.9844970703125,-0.18643590807914734,0.02342446707189083,-0.01575046218931675
1131,961,-0.19746361672878265,-0.5521986484527588,-999.9844970703125,-0.18643590807914734,0.02342446707189083,-0.01575046218931675
1232,962,-0.2508610486984253,-0.5157262682914734,-1000.011962890625,-0.2641041576862335,-0.05762773007154465,0.043838560581207275
1175,962,-0.2508610486984253,-0.5157262682914734,-1000.011962890625,-0.2641041576862335,-0.05762773007154465,0.043838560581207275
1190,962,-0.2508610486984253,-0.5157262682914734,-1000.011962890625,-0.2641041576862335,-0.05762773007154465,0.043838560581207275
1210,962,-0.2508610486984253,-0.5157262682914734,-1000.011962890625,-0.2641041576862335,-0.05762773007154465,0.043838560581207275
1163,962,-0.2508610486984253,-0.5157262682914734,-1000.011962890625,-0.2641041576862335,-0.05762773007154465,0.043838560581207275
1106,962,-0.2508610486984253,-0.5157262682914734,-1000.011962890625,-0.2641041576862335,-0.05762773007154465,0.043838560581207275
1121,962,-0.2508610486984253,-0.5157262682914734,-1000.011962890625,-0.2641041576862335,-0.05762773007154465,0.043838560581207275
1141,962,-0.2508610486984253,-0.5157262682914734,-1000.011962890625,-0.2641041576862335,-0.05762773007154465,0.043838560581207275
1209,963,-0.2591485381126404,-0.2723391056060791,-1000.2721557617188,0.25595974922180176,0.21823309361934662,-0.05284621939063072
1233,963,-0.2591485381126404,-0.2723391056060791,-1000.2721557617188,0.25595974922180176,0.21823309361934662,-0.05284621939063072
1222,963,-0.2591485381126404,-0.2723391056060791,-1000.2721557617188,0.25595974922180176,0.21823309361934662,-0.05284621939063072
1210,963,-0.2591485381126404,-0.2723391056060791,-1000.2721557617188,0.25595974922180176,0.21823309361934662,-0.05284621939063072
1140,963,-0.2591485381126404,-0.2723391056060791,-1000.2721557617188,0.25595974922180176,0.21823309361934662,-0.05284621939063072
1164,963,-0.2591485381126404,-0.2723391056060791,-1000.2721557617188,0.25595974922180176,0.21823309361934662,-0.05284621939063072
1153,963,-0.2591485381126404,-0.2723391056060791,-1000.2721557617188,0.25595974922180176,0.21823309361934662,-0.05284621939063072
1141,963,-0.2591485381126404,-0.2723391056060791,-1000.2721557617188,0.25595974922180176,0.21823309361934662,-0.05284621939063072
1233,964,-0.9111441373825073,-0.5250101685523987,-1000.1642456054688,-0.3104538023471832,-0.5155135989189148,0.257377564907074
1216,964,-0.9111441373825073,-0.5250101685523987,-1000.1642456054688,-0.3104538023471832,-0.5155135989189148,0.257377564907074
1242,964,-0.9111441373825073,-0.5250101685523987,-1000.1642456054688,-0.3104538023471832,-0.5155135989189148,0.257377564907074
1227,964,-0.9111441373825073,-0.5250101685523987,-1000.1642456054688,-0.3104538023471832,-0.5155135989189148,0.257377564907074
1164,964,-0.9111441373825073,-0.5250101685523987,-1000.1642456054688,-0.3104538023471832,-0.5155135989189148,0.257377564907074
1147,964,-0.9111441373825073,-0.5250101685523987,-1000.1642456054688,-0.3104538023471832,-0.5155135989189148,0.257377564907074
1173,964,-0.9111441373825073,-0.5250101685523987,-1000.1642456054688,-0.3104538023471832,-0.5155135989189148,0.257377564907074
1158,964,-0.9111441373825073,-0.5250101685523987,-1000.1642456054688,-0.3104538023471832,-0.5155135989189148,0.257377564907074
1235,965,0.4841124415397644,1.4571452140808105,-999.4464111328125,0.0694739893078804,0.13764674961566925,0.16296672821044922
1196,965,0.4841124415397644,1.4571452140808105,-999.4464111328125,0.0694739893078804,0.13764674961566925,0.16296672821044922
1197,965,0.4841124415397644,1.4571452140808105,-999.4464111328125,0.0694739893078804,0.13764674961566925,0.16296672821044922
1221,965,0.4841124415397644,1.4571452140808105,-999.4464111328125,0.0694739893078804,0.13764674961566925,0.16296672821044922
1166,965,0.4841124415397644,1.4571452140808105,-999.4464111328125,0.0694739893078804,0.13764674961566925,0.16296672821044922
1127,965,0.4841124415397644,1.4571452140808105,-999.4464111328125,0.0694739893078804,0.13764674961566925,0.16296672821044922
1128,965,0.4841124415397644,1.4571452140808105,-999.4464111328125,0.0694739893078804,0.13764674961566925,0.16296672821044922
1152,965,0.4841124415397644,1.4571452140808105,-999.4464111328125,0.0694739893078804,0.13764674961566925,0.16296672821044922
1236,966,0.27576085925102234,0.9395422339439392,-999.7032470703125,0.15897773206233978,-0.06587445735931396,-0.04851656034588814
1214,966,0.27576085925102234,0.9395422339439392,-999.7032470703125,0.15897773206233978,-0.06587445735931396,-0.04851656034588814
1199,966,0.27576085925102234,0.9395422339439392,-999.7032470703125,0.15897773206233978,-0.06587445735931396,-0.04851656034588814
1220,966,0.27576085925102234,0.9395422339439392,-999.7032470703125,0.15897773206233978,-0.06587445735931396,-0.04851656034588814
1167,966,0.27576085925102234,0.9395422339439392,-999.7032470703125,0.15897773206233978,-0.06587445735931396,-0.04851656034588814
1145,966,0.27576085925102234,0.9395422339439392,-999.7032470703125,0.15897773206233978,-0.06587445735931396,-0.04851656034588814
1130,966,0.27576085925102234,0.9395422339439392,-999.7032470703125,0.15897773206233978,-0.06587445735931396,-0.04851656034588814
1151,966,0.27576085925102234,0.9395422339439392,-999.7032470703125,0.15897773206233978,-0.06587445735931396,-0.04851656034588814
1238,967,0.36730149388313293,-0.28228411078453064,-1000.0319213867188,-0.027318282052874565,-0.2759341299533844,0.043785203248262405
1213,967,0.36730149388313293,-0.28228411078453064,-1000.0319213867188,-0.027318282052874565,-0.2759341299533844,0.043785203248262405
1202,967,0.36730149388313293,-0.28228411078453064,-1000.0319213867188,-0.027318282052874565,-0.2759341299533844,0.043785203248262405
1217,967,0.36730149388313293,-0.28228411078453064,-1000.0319213867188,-0.027318282052874565,-0.2759341299533844,0.043785203248262405
1169,967,0.36730149388313293,-0.28228411078453064,-1000.0319213867188,-0.027318282052874565,-0.2759341299533844,0.043785203248262405
1144,967,0.36730149388313293,-0.28228411078453064,-1000.0319213867188,-0.027318282052874565,-0.2759341299533844,0.043785203248262405
1133,967,0.36730149388313293,-0.28228411078453064,-1000.0319213867188,-0.027318282052874565,-0.2759341299533844,0.043785203248262405
1148,967,0.36730149388313293,-0.28228411078453064,-1000.0319213867188,-0.027318282052874565,-0.2759341299533844,0.043785203248262405
1239,968,0.5391157269477844,-0.26405465602874756,-1000.175048828125,-0.22144711017608643,-0.23707428574562073,0.08513453602790833
1203,968,0.5391157269477844,-0.26405465602874756,-1000.175048828125,-0.22144711017608643,-0.23707428574562073,0.08513453602790833
1204,968,0.5391157269477844,-0.26405465602874756,-1000.175048828125,-0.22144711017608643,-0.23707428574562073,0.08513453602790833
1224,968,0.5391157269477844,-0.26405465602874756,-1000.175048828125,-0.22144711017608643,-0.23707428574562073,0.08513453602790833
1170,968,0.5391157269477844,-0.26405465602874756,-1000.175048828125,-0.22144711017608643,-0.23707428574562073,0.08513453602790833
1134,968,0.5391157269477844,-0.26405465602874756,-1000.175048828125,-0.22144711017608643,-0.23707428574562073,0.08513453602790833
1135,968,0.5391157269477844,-0.26405465602874756,-1000.175048828125,-0.22144711017608643,-0.23707428574562073,0.08513453602790833
1155,968,0.5391157269477844,-0.26405465602874756,-1000.175048828125,-0.22144711017608643,-0.23707428574562073,0.08513453602790833
1241,969,-0.3617776930332184,0.07139529287815094,-1000.1315307617188,-0.21414759755134583,-0.08069679141044617,0.10453266650438309
1206,969,-0.3617776930332184,0.07139529287815094,-1000.1315307617188,-0.21414759755134583,-0.08069679141044617,0.10453266650438309
1211,969,-0.3617776930332184,0.07139529287815094,-1000.1315307617188,-0.21414759755134583,-0.08069679141044617,0.10453266650438309
1223,969,-0.3617776930332184,0.07139529287815094,-1000.1315307617188,-0.21414759755134583,-0.08069679141044617,0.10453266650438309
1172,969,-0.3617776930332184,0.07139529287815094,-1000.1315307617188,-0.21414759755134583,-0.08069679141044617,0.10453266650438309
1137,969,-0.3617776930332184,0.07139529287815094,-1000.1315307617188,-0.21414759755134583,-0.08069679141044617,0.10453266650438309
1142,969,-0.3617776930332184,0.07139529287815094,-1000.1315307617188,-0.21414759755134583,-0.08069679141044617,0.10453266650438309
1154,969,-0.3617776930332184,0.07139529287815094,-1000.1315307617188,-0.21414759755134583,-0.08069679141044617,0.10453266650438309
1266,970,0.09249281138181686,0.6257622241973877,-999.994873046875,0.011793185025453568,0.04073042795062065,0.020447809249162674
1255,970,0.09249281138181686,0.6257622241973877,-999.994873046875,0.011793185025453568,0.04073042795062065,0.020447809249162674
1254,970,0.09249281138181686,0.6257622241973877,-999.994873046875,0.011793185025453568,0.04073042795062065,0.020447809249162674
1283,970,0.09249281138181686,0.6257622241973877,-999.994873046875,0.011793185025453568,0.04073042795062065,0.020447809249162674
1197,970,0.09249281138181686,0.6257622241973877,-999.994873046875,0.011793185025453568,0.04073042795062065,0.020447809249162674
1186,970,0.09249281138181686,0.6257622241973877,-999.994873046875,0.011793185025453568,0.04073042795062065,0.020447809249162674
1185,970,0.09249281138181686,0.6257622241973877,-999.994873046875,0.011793185025453568,0.04073042795062065,0.020447809249162674
1214,970,0.09249281138181686,0.6257622241973877,-999.994873046875,0.011793185025453568,0.04073042795062065,0.020447809249162674
1283,971,0.21387048065662384,0.7331439852714539,-1000.0234375,-0.06766728311777115,-0.023663021624088287,-0.05804244428873062
1254,971,0.21387048065662384,0.7331439852714539,-1000.0234375,-0.06766728311777115,-0.023663021624088287,-0.05804244428873062
1263,971,0.21387048065662384,0.7331439852714539,-1000.0234375,-0.06766728311777115,-0.023663021624088287,-0.05804244428873062
1268,971,0.21387048065662384,0.7331439852714539,-1000.0234375,-0.06766728311777115,-0.023663021624088287,-0.05804244428873062
1214,971,0.21387048065662384,0.7331439852714539,-1000.0234375,-0.06766728311777115,-0.023663021624088287,-0.05804244428873062
1185,971,0.21387048065662384,0.7331439852714539,-1000.0234375,-0.06766728311777115,-0.023663021624088287,-0.05804244428873062
1194,971,0.21387048065662384,0.7331439852714539,-1000.0234375,-0.06766728311777115,-0.023663021624088287,-0.05804244428873062
1199,971,0.21387048065662384,0.7331439852714539,-1000.0234375,-0.06766728311777115,-0.023663021624088287,-0.05804244428873062
1264,972,0.18750137090682983,0.1668965369462967,-999.9991455078125,-0.10062951594591141,0.037560876458883286,-0.05702223256230354
1284,972,0.18750137090682983,0.1668965369462967,-999.9991455078125,-0.10062951594591141,0.037560876458883286,-0.05702223256230354
1267,972,0.18750137090682983,0.1668965369462967,-999.9991455078125,-0.10062951594591141,0.037560876458883286,-0.05702223256230354
1257,972,0.18750137090682983,0.1668965369462967,-999.9991455078125,-0.10062951594591141,0.037560876458883286,-0.05702223256230354
1195,972,0.18750137090682983,0.1668965369462967,-999.9991455078125,-0.10062951594591141,0.037560876458883286,-0.05702223256230354
1215,972,0.18750137090682983,0.1668965369462967,-999.9991455078125,-0.10062951594591141,0.037560876458883286,-0.05702223256230354
1198,972,0.18750137090682983,0.1668965369462967,-999.9991455078125,-0.10062951594591141,0.037560876458883286,-0.05702223256230354
1188,972,0.18750137090682983,0.1668965369462967,-999.9991455078125,-0.10062951594591141,0.037560876458883286,-0.05702223256230354
1255,973,0.228624626994133,0.8005858063697815,-999.9730224609375,-0.1166829913854599,0.016698656603693962,-0.03595568984746933
1266,973,0.228624626994133,0.8005858063697815,-999.9730224609375,-0.1166829913854599,0.016698656603693962,-0.03595568984746933
1265,973,0.228624626994133,0.8005858063697815,-999.9730224609375,-0.1166829913854599,0.016698656603693962,-0.03595568984746933
1256,973,0.228624626994133,0.8005858063697815,-999.9730224609375,-0.1166829913854599,0.016698656603693962,-0.03595568984746933
1186,973,0.228624626994133,0.8005858063697815,-999.9730224609375,-0.1166829913854599,0.016698656603693962,-0.03595568984746933
1197,973,0.228624626994133,0.8005858063697815,-999.9730224609375,-0.1166829913854599,0.016698656603693962,-0.03595568984746933
1196,973,0.228624626994133,0.8005858063697815,-999.9730224609375,-0.1166829913854599,0.016698656603693962,-0.03595568984746933
1187,973,0.228624626994133,0.8005858063697815,-999.9730224609375,-0.1166829913854599,0.016698656603693962,-0.03595568984746933
1294,974,0.2967681586742401,0.2325277477502823,-999.99072265625,0.20958591997623444,-0.12200072407722473,-0.2378554344177246
1307,974,0.2967681586742401,0.2325277477502823,-999.99072265625,0.20958591997623444,-0.12200072407722473,-0.2378554344177246
1286,974,0.2967681586742401,0.2325277477502823,-999.99072265625,0.20958591997623444,-0.12200072407722473,-0.2378554344177246
1297,974,0.2967681586742401,0.2325277477502823,-999.99072265625,0.20958591997623444,-0.12200072407722473,-0.2378554344177246
1225,974,0.2967681586742401,0.2325277477502823,-999.99072265625,0.20958591997623444,-0.12200072407722473,-0.2378554344177246
1238,974,0.2967681586742401,0.2325277477502823,-999.99072265625,0.20958591997623444,-0.12200072407722473,-0.2378554344177246
1217,974,0.2967681586742401,0.2325277477502823,-999.99072265625,0.20958591997623444,-0.12200072407722473,-0.2378554344177246
1228,974,0.2967681586742401,0.2325277477502823,-999.99072265625,0.20958591997623444,-0.12200072407722473,-0.2378554344177246
1310,975,-0.8968340754508972,-1.0721189975738525,-1000.196044921875,0.030395789071917534,0.0002303629444213584,0.026977065950632095
1288,975,-0.8968340754508972,-1.0721189975738525,-1000.196044921875,0.030395789071917534,0.0002303629444213584,0.026977065950632095
1274,975,-0.8968340754508972,-1.0721189975738525,-1000.196044921875,0.030395789071917534,0.0002303629444213584,0.026977065950632095
1275,975,-0.8968340754508972,-1.0721189975738525,-1000.196044921875,0.030395789071917534,0.0002303629444213584,0.026977065950632095
1241,975,-0.8968340754508972,-1.0721189975738525,-1000.196044921875,0.030395789071917534,0.0002303629444213584,0.026977065950632095
1219,975,-0.8968340754508972,-1.0721189975738525,-1000.196044921875,0.030395789071917534,0.0002303629444213584,0.026977065950632095
1205,975,-0.8968340754508972,-1.0721189975738525,-1000.196044921875,0.030395789071917534,0.0002303629444213584,0.026977065950632095
1206,975,-0.8968340754508972,-1.0721189975738525,-1000.196044921875,0.030395789071917534,0.0002303629444213584,0.026977065950632095
1298,976,-0.46888822317123413,-0.6341301798820496,-1000.0914306640625,0.18742899596691132,0.22662414610385895,0.12640582025051117
1295,976,-0.46888822317123413,-0.6341301798820496,-1000.0914306640625,0.18742899596691132,0.22662414610385895,0.12640582025051117
1294,976,-0.46888822317123413,-0.6341301798820496,-1000.0914306640625,0.18742899596691132,0.22662414610385895,0.12640582025051117
1297,976,-0.46888822317123413,-0.6341301798820496,-1000.0914306640625,0.18742899596691132,0.22662414610385895,0.12640582025051117
1229,976,-0.46888822317123413,-0.6341301798820496,-1000.0914306640625,0.18742899596691132,0.22662414610385895,0.12640582025051117
1226,976,-0.46888822317123413,-0.6341301798820496,-1000.0914306640625,0.18742899596691132,0.22662414610385895,0.12640582025051117
1225,976,-0.46888822317123413,-0.6341301798820496,-1000.0914306640625,0.18742899596691132,0.22662414610385895,0.12640582025051117
1228,976,-0.46888822317123413,-0.6341301798820496,-1000.0914306640625,0.18742899596691132,0.22662414610385895,0.12640582025051117
1289,977,0.6426774263381958,1.1571972370147705,-999.8651123046875,0.1131272166967392,-0.18120156228542328,-0.054521091282367706
1306,977,0.6426774263381958,1.1571972370147705,-999.8651123046875,0.1131272166967392,-0.18120156228542328,-0.054521091282367706
1294,977,0.6426774263381958,1.1571972370147705,-999.8651123046875,0.1131272166967392,-0.18120156228542328,-0.054521091282367706
1295,977,0.6426774263381958,1.1571972370147705,-999.8651123046875,0.1131272166967392,-0.18120156228542328,-0.054521091282367706
1220,977,0.6426774263381958,1.1571972370147705,-999.8651123046875,0.1131272166967392,-0.18120156228542328,-0.054521091282367706
1237,977,0.6426774263381958,1.1571972370147705,-999.8651123046875,0.1131272166967392,-0.18120156228542328,-0.054521091282367706
1225,977,0.6426774263381958,1.1571972370147705,-999.8651123046875,0.1131272166967392,-0.18120156228542328,-0.054521091282367706
1226,977,0.6426774263381958,1.1571972370147705,-999.8651123046875,0.1131272166967392,-0.18120156228542328,-0.054521091282367706
1269,978,-0.3792422413825989,-0.3462545573711395,-999.9169921875,-0.20182068645954132,-0.20558999478816986,0.21164460480213165
1282,978,-0.3792422413825989,-0.3462545573711395,-999.9169921875,-0.20182068645954132,-0.20558999478816986,0.21164460480213165
1307,978,-0.3792422413825989,-0.3462545573711395,-999.9169921875,-0.20182068645954132,-0.20558999478816986,0.21164460480213165
1294,978,-0.3792422413825989,-0.3462545573711395,-999.9169921875,-0.20182068645954132,-0.20558999478816986,0.21164460480213165
1200,978,-0.3792422413825989,-0.3462545573711395,-999.9169921875,-0.20182068645954132,-0.20558999478816986,0.21164460480213165
1213,978,-0.3792422413825989,-0.3462545573711395,-999.9169921875,-0.20182068645954132,-0.20558999478816986,0.21164460480213165
1238,978,-0.3792422413825989,-0.3462545573711395,-999.9169921875,-0.20182068645954132,-0.20558999478816986,0.21164460480213165
1225,978,-0.3792422413825989,-0.3462545573711395,-999.9169921875,-0.20182068645954132,-0.20558999478816986,0.21164460480213165
1309,979,-1.4987999200820923,-0.6631962656974792,-1000.24560546875,-0.34257519245147705,0.0020206712651997805,-0.12763778865337372
1293,979,-1.4987999200820923,-0.6631962656974792,-1000.24560546875,-0.34257519245147705,0.0020206712651997805,-0.12763778865337372
1273,979,-1.4987999200820923,-0.6631962656974792,-1000.24560546875,-0.34257519245147705,0.0020206712651997805,-0.12763778865337372
1281,979,-1.4987999200820923,-0.6631962656974792,-1000.24560546875,-0.34257519245147705,0.0020206712651997805,-0.12763778865337372
1240,979,-1.4987999200820923,-0.6631962656974792,-1000.24560546875,-0.34257519245147705,0.0020206712651997805,-0.12763778865337372
1224,979,-1.4987999200820923,-0.6631962656974792,-1000.24560546875,-0.34257519245147705,0.0020206712651997805,-0.12763778865337372
1204,979,-1.4987999200820923,-0.6631962656974792,-1000.24560546875,-0.34257519245147705,0.0020206712651997805,-0.12763778865337372
1212,979,-1.4987999200820923,-0.6631962656974792,-1000.24560546875,-0.34257519245147705,0.0020206712651997805,-0.12763778865337372
1303,980,0.4494512975215912,0.6885930895805359,-999.742431640625,0.1755535751581192,0.5439403057098389,-0.3459886610507965
1298,980,0.4494512975215912,0.6885930895805359,-999.742431640625,0.1755535751581192,0.5439403057098389,-0.3459886610507965
1277,980,0.4494512975215912,0.6885930895805359,-999.742431640625,0.1755535751581192,0.5439403057098389,-0.3459886610507965
1291,980,0.4494512975215912,0.6885930895805359,-999.742431640625,0.1755535751581192,0.5439403057098389,-0.3459886610507965
1234,980,0.4494512975215912,0.6885930895805359,-999.742431640625,0.1755535751581192,0.5439403057098389,-0.3459886610507965
1229,980,0.4494512975215912,0.6885930895805359,-999.742431640625,0.1755535751581192,0.5439403057098389,-0.3459886610507965
1208,980,0.4494512975215912,0.6885930895805359,-999.742431640625,0.1755535751581192,0.5439403057098389,-0.3459886610507965
1222,980,0.4494512975215912,0.6885930895805359,-999.742431640625,0.1755535751581192,0.5439403057098389,-0.3459886610507965
1277,981,-0.6065118312835693,-0.29427891969680786,-999.9531860351562,-0.4339931607246399,0.024531837552785873,0.06883234530687332
1292,981,-0.6065118312835693,-0.29427891969680786,-999.9531860351562,-0.4339931607246399,0.024531837552785873,0.06883234530687332
1300,981,-0.6065118312835693,-0.29427891969680786,-999.9531860351562,-0.4339931607246399,0.024531837552785873,0.06883234530687332
1301,981,-0.6065118312835693,-0.29427891969680786,-999.9531860351562,-0.4339931607246399,0.024531837552785873,0.06883234530687332
1208,981,-0.6065118312835693,-0.29427891969680786,-999.9531860351562,-0.4339931607246399,0.024531837552785873,0.06883234530687332
1223,981,-0.6065118312835693,-0.29427891969680786,-999.9531860351562,-0.4339931607246399,0.024531837552785873,0.06883234530687332
1231,981,-0.6065118312835693,-0.29427891969680786,-999.9531860351562,-0.4339931607246399,0.024531837552785873,0.06883234530687332
1232,981,-0.6065118312835693,-0.29427891969680786,-999.9531860351562,-0.4339931607246399,0.024531837552785873,0.06883234530687332
1284,982,-0.06143106892704964,0.027135586366057396,-999.4437255859375,0.570655345916748,-0.006027505733072758,0.1792275756597519
1265,982,-0.06143106892704964,0.027135586366057396,-999.4437255859375,0.570655345916748,-0.006027505733072758,0.1792275756597519
1304,982,-0.06143106892704964,0.027135586366057396,-999.4437255859375,0.570655345916748,-0.006027505733072758,0.1792275756597519
1287,982,-0.06143106892704964,0.027135586366057396,-999.4437255859375,0.570655345916748,-0.006027505733072758,0.1792275756597519
1215,982,-0.06143106892704964,0.027135586366057396,-999.4437255859375,0.570655345916748,-0.006027505733072758,0.1792275756597519
1196,982,-0.06143106892704964,0.027135586366057396,-999.4437255859375,0.570655345916748,-0.006027505733072758,0.1792275756597519
1235,982,-0.06143106892704964,0.027135586366057396,-999.4437255859375,0.570655345916748,-0.006027505733072758,0.1792275756597519
1218,982,-0.06143106892704964,0.027135586366057396,-999.4437255859375,0.570655345916748,-0.006027505733072758,0.1792275756597519
1311,983,-0.6505147218704224,-0.9675315618515015,-1000.4969482421875,0.12149153649806976,-0.11754964292049408,-0.2012358158826828
1267,983,-0.6505147218704224,-0.9675315618515015,-1000.4969482421875,0.12149153649806976,-0.11754964292049408,-0.2012358158826828
1284,983,-0.6505147218704224,-0.9675315618515015,-1000.4969482421875,0.12149153649806976,-0.11754964292049408,-0.2012358158826828
1287,983,-0.6505147218704224,-0.9675315618515015,-1000.4969482421875,0.12149153649806976,-0.11754964292049408,-0.2012358158826828
1242,983,-0.6505147218704224,-0.9675315618515015,-1000.4969482421875,0.12149153649806976,-0.11754964292049408,-0.2012358158826828
1198,983,-0.6505147218704224,-0.9675315618515015,-1000.4969482421875,0.12149153649806976,-0.11754964292049408,-0.2012358158826828
1215,983,-0.6505147218704224,-0.9675315618515015,-1000.4969482421875,0.12149153649806976,-0.11754964292049408,-0.2012358158826828
1218,983,-0.6505147218704224,-0.9675315618515015,-1000.4969482421875,0.12149153649806976,-0.11754964292049408,-0.2012358158826828
1271,984,-0.7510053515434265,-0.4263029098510742,-1000.1522216796875,-0.11691775172948837,-0.19612905383110046,0.21012505888938904
1272,984,-0.7510053515434265,-0.4263029098510742,-1000.1522216796875,-0.11691775172948837,-0.19612905383110046,0.21012505888938904
1308,984,-0.7510053515434265,-0.4263029098510742,-1000.1522216796875,-0.11691775172948837,-0.19612905383110046,0.21012505888938904
1286,984,-0.7510053515434265,-0.4263029098510742,-1000.1522216796875,-0.11691775172948837,-0.19612905383110046,0.21012505888938904
1202,984,-0.7510053515434265,-0.4263029098510742,-1000.1522216796875,-0.11691775172948837,-0.19612905383110046,0.21012505888938904
1203,984,-0.7510053515434265,-0.4263029098510742,-1000.1522216796875,-0.11691775172948837,-0.19612905383110046,0.21012505888938904
1239,984,-0.7510053515434265,-0.4263029098510742,-1000.1522216796875,-0.11691775172948837,-0.19612905383110046,0.21012505888938904
1217,984,-0.7510053515434265,-0.4263029098510742,-1000.1522216796875,-0.11691775172948837,-0.19612905383110046,0.21012505888938904
1256,985,0.2758999168872833,0.6521510481834412,-999.995361328125,-0.3376641273498535,0.005857914220541716,0.055117007344961166
1265,985,0.2758999168872833,0.6521510481834412,-999.995361328125,-0.3376641273498535,0.005857914220541716,0.055117007344961166
1284,985,0.2758999168872833,0.6521510481834412,-999.995361328125,-0.3376641273498535,0.005857914220541716,0.055117007344961166
1264,985,0.2758999168872833,0.6521510481834412,-999.995361328125,-0.3376641273498535,0.005857914220541716,0.055117007344961166
1187,985,0.2758999168872833,0.6521510481834412,-999.995361328125,-0.3376641273498535,0.005857914220541716,0.055117007344961166
1196,985,0.2758999168872833,0.6521510481834412,-999.995361328125,-0.3376641273498535,0.005857914220541716,0.055117007344961166
1215,985,0.2758999168872833,0.6521510481834412,-999.995361328125,-0.3376641273498535,0.005857914220541716,0.055117007344961166
1195,985,0.2758999168872833,0.6521510481834412,-999.995361328125,-0.3376641273498535,0.005857914220541716,0.055117007344961166
1253,986,0.3011607527732849,1.1280421018600464,-999.9512329101562,0.030780816450715065,0.0017708351369947195,-0.011883517727255821
1299,986,0.3011607527732849,1.1280421018600464,-999.9512329101562,0.030780816450715065,0.0017708351369947195,-0.011883517727255821
1268,986,0.3011607527732849,1.1280421018600464,-999.9512329101562,0.030780816450715065,0.0017708351369947195,-0.011883517727255821
1263,986,0.3011607527732849,1.1280421018600464,-999.9512329101562,0.030780816450715065,0.0017708351369947195,-0.011883517727255821
1184,986,0.3011607527732849,1.1280421018600464,-999.9512329101562,0.030780816450715065,0.0017708351369947195,-0.011883517727255821
1230,986,0.3011607527732849,1.1280421018600464,-999.9512329101562,0.030780816450715065,0.0017708351369947195,-0.011883517727255821
1199,986,0.3011607527732849,1.1280421018600464,-999.9512329101562,0.030780816450715065,0.0017708351369947195,-0.011883517727255821
1194,986,0.3011607527732849,1.1280421018600464,-999.9512329101562,0.030780816450715065,0.0017708351369947195,-0.011883517727255821
1269,987,0.41730087995529175,0.07748223841190338,-999.9910888671875,0.1308952271938324,0.03457624465227127,-0.05842290073633194
1252,987,0.41730087995529175,0.07748223841190338,-999.9910888671875,0.1308952271938324,0.03457624465227127,-0.05842290073633194
1262,987,0.41730087995529175,0.07748223841190338,-999.9910888671875,0.1308952271938324,0.03457624465227127,-0.05842290073633194
1282,987,0.41730087995529175,0.07748223841190338,-999.9910888671875,0.1308952271938324,0.03457624465227127,-0.05842290073633194
1200,987,0.41730087995529175,0.07748223841190338,-999.9910888671875,0.1308952271938324,0.03457624465227127,-0.05842290073633194
1183,987,0.41730087995529175,0.07748223841190338,-999.9910888671875,0.1308952271938324,0.03457624465227127,-0.05842290073633194
1193,987,0.41730087995529175,0.07748223841190338,-999.9910888671875,0.1308952271938324,0.03457624465227127,-0.05842290073633194
1213,987,0.41730087995529175,0.07748223841190338,-999.9910888671875,0.1308952271938324,0.03457624465227127,-0.05842290073633194
1270,988,0.46121013164520264,0.07916542142629623,-1000.0274047851562,-0.0016387513605877757,0.049014270305633545,0.031495947390794754
1258,988,0.46121013164520264,0.07916542142629623,-1000.0274047851562,-0.0016387513605877757,0.049014270305633545,0.031495947390794754
1257,988,0.46121013164520264,0.07916542142629623,-1000.0274047851562,-0.0016387513605877757,0.049014270305633545,0.031495947390794754
1267,988,0.46121013164520264,0.07916542142629623,-1000.0274047851562,-0.0016387513605877757,0.049014270305633545,0.031495947390794754
1201,988,0.46121013164520264,0.07916542142629623,-1000.0274047851562,-0.0016387513605877757,0.049014270305633545,0.031495947390794754
1189,988,0.46121013164520264,0.07916542142629623,-1000.0274047851562,-0.0016387513605877757,0.049014270305633545,0.031495947390794754
1188,988,0.46121013164520264,0.07916542142629623,-1000.0274047851562,-0.0016387513605877757,0.049014270305633545,0.031495947390794754
1198,988,0.46121013164520264,0.07916542142629623,-1000.0274047851562,-0.0016387513605877757,0.049014270305633545,0.031495947390794754
1282,989,0.28421393036842346,-0.06014776602387428,-1000.0307006835938,-0.049111008644104004,-0.05288093537092209,0.0378238670527935
1262,989,0.28421393036842346,-0.06014776602387428,-1000.0307006835938,-0.049111008644104004,-0.05288093537092209,0.0378238670527935
1251,989,0.28421393036842346,-0.06014776602387428,-1000.0307006835938,-0.049111008644104004,-0.05288093537092209,0.0378238670527935
1271,989,0.28421393036842346,-0.06014776602387428,-1000.0307006835938,-0.049111008644104004,-0.05288093537092209,0.0378238670527935
1213,989,0.28421393036842346,-0.06014776602387428,-1000.0307006835938,-0.049111008644104004,-0.05288093537092209,0.0378238670527935
1193,989,0.28421393036842346,-0.06014776602387428,-1000.0307006835938,-0.049111008644104004,-0.05288093537092209,0.0378238670527935
1182,989,0.28421393036842346,-0.06014776602387428,-1000.0307006835938,-0.049111008644104004,-0.05288093537092209,0.0378238670527935
1202,989,0.28421393036842346,-0.06014776602387428,-1000.0307006835938,-0.049111008644104004,-0.05288093537092209,0.0378238670527935
1306,990,-0.26663461327552795,-0.460400253534317,-1000.1409301757812,-0.4281691312789917,0.1493304967880249,-0.08412092179059982
1299,990,-0.26663461327552795,-0.460400253534317,-1000.1409301757812,-0.4281691312789917,0.1493304967880249,-0.08412092179059982
1269,990,-0.26663461327552795,-0.460400253534317,-1000.1409301757812,-0.4281691312789917,0.1493304967880249,-0.08412092179059982
1294,990,-0.26663461327552795,-0.460400253534317,-1000.1409301757812,-0.4281691312789917,0.1493304967880249,-0.08412092179059982
1237,990,-0.26663461327552795,-0.460400253534317,-1000.1409301757812,-0.4281691312789917,0.1493304967880249,-0.08412092179059982
1230,990,-0.26663461327552795,-0.460400253534317,-1000.1409301757812,-0.4281691312789917,0.1493304967880249,-0.08412092179059982
1200,990,-0.26663461327552795,-0.460400253534317,-1000.1409301757812,-0.4281691312789917,0.1493304967880249,-0.08412092179059982
1225,990,-0.26663461327552795,-0.460400253534317,-1000.1409301757812,-0.4281691312789917,0.1493304967880249,-0.08412092179059982
1271,991,0.2666003108024597,0.003256941447034478,-999.971923828125,-0.10965745896100998,0.007996001280844212,-0.07486138492822647
1251,991,0.2666003108024597,0.003256941447034478,-999.971923828125,-0.10965745896100998,0.007996001280844212,-0.07486138492822647
1250,991,0.2666003108024597,0.003256941447034478,-999.971923828125,-0.10965745896100998,0.007996001280844212,-0.07486138492822647
1272,991,0.2666003108024597,0.003256941447034478,-999.971923828125,-0.10965745896100998,0.007996001280844212,-0.07486138492822647
1202,991,0.2666003108024597,0.003256941447034478,-999.971923828125,-0.10965745896100998,0.007996001280844212,-0.07486138492822647
1182,991,0.2666003108024597,0.003256941447034478,-999.971923828125,-0.10965745896100998,0.007996001280844212,-0.07486138492822647
1181,991,0.2666003108024597,0.003256941447034478,-999.971923828125,-0.10965745896100998,0.007996001280844212,-0.07486138492822647
1203,991,0.2666003108024597,0.003256941447034478,-999.971923828125,-0.10965745896100998,0.007996001280844212,-0.07486138492822647
1272,992,0.5050585269927979,0.1139974519610405,-1000.0418701171875,0.05114056169986725,-0.01358087733387947,0.06904580444097519
1250,992,0.5050585269927979,0.1139974519610405,-1000.0418701171875,0.05114056169986725,-0.01358087733387947,0.06904580444097519
1249,992,0.5050585269927979,0.1139974519610405,-1000.0418701171875,0.05114056169986725,-0.01358087733387947,0.06904580444097519
1273,992,0.5050585269927979,0.1139974519610405,-1000.0418701171875,0.05114056169986725,-0.01358087733387947,0.06904580444097519
1203,992,0.5050585269927979,0.1139974519610405,-1000.0418701171875,0.05114056169986725,-0.01358087733387947,0.06904580444097519
1181,992,0.5050585269927979,0.1139974519610405,-1000.0418701171875,0.05114056169986725,-0.01358087733387947,0.06904580444097519
1180,992,0.5050585269927979,0.1139974519610405,-1000.0418701171875,0.05114056169986725,-0.01358087733387947,0.06904580444097519
1204,992,0.5050585269927979,0.1139974519610405,-1000.0418701171875,0.05114056169986725,-0.01358087733387947,0.06904580444097519
1303,993,-0.268135666847229,0.5687826871871948,-1000.205810546875,0.18462438881397247,-0.028145764023065567,0.4697570204734802
1291,993,-0.268135666847229,0.5687826871871948,-1000.205810546875,0.18462438881397247,-0.028145764023065567,0.4697570204734802
1302,993,-0.268135666847229,0.5687826871871948,-1000.205810546875,0.18462438881397247,-0.028145764023065567,0.4697570204734802
1296,993,-0.268135666847229,0.5687826871871948,-1000.205810546875,0.18462438881397247,-0.028145764023065567,0.4697570204734802
1234,993,-0.268135666847229,0.5687826871871948,-1000.205810546875,0.18462438881397247,-0.028145764023065567,0.4697570204734802
1222,993,-0.268135666847229,0.5687826871871948,-1000.205810546875,0.18462438881397247,-0.028145764023065567,0.4697570204734802
1233,993,-0.268135666847229,0.5687826871871948,-1000.205810546875,0.18462438881397247,-0.028145764023065567,0.4697570204734802
1227,993,-0.268135666847229,0.5687826871871948,-1000.205810546875,0.18462438881397247,-0.028145764023065567,0.4697570204734802
1258,994,0.4955306649208069,0.23254577815532684,-999.9824829101562,0.2273990958929062,0.034517355263233185,-0.06494120508432388
1270,994,0.4955306649208069,0.23254577815532684,-999.9824829101562,0.2273990958929062,0.034517355263233185,-0.06494120508432388
1278,994,0.4955306649208069,0.23254577815532684,-999.9824829101562,0.2273990958929062,0.034517355263233185,-0.06494120508432388
1243,994,0.4955306649208069,0.23254577815532684,-999.9824829101562,0.2273990958929062,0.034517355263233185,-0.06494120508432388
1189,994,0.4955306649208069,0.23254577815532684,-999.9824829101562,0.2273990958929062,0.034517355263233185,-0.06494120508432388
1201,994,0.4955306649208069,0.23254577815532684,-999.9824829101562,0.2273990958929062,0.034517355263233185,-0.06494120508432388
1209,994,0.4955306649208069,0.23254577815532684,-999.9824829101562,0.2273990958929062,0.034517355263233185,-0.06494120508432388
1174,994,0.4955306649208069,0.23254577815532684,-999.9824829101562,0.2273990958929062,0.034517355263233185,-0.06494120508432388
1273,995,0.5257151126861572,-0.0033171935938298702,-999.9639892578125,0.04164617881178856,-0.040389806032180786,-0.02417907677590847
1249,995,0.5257151126861572,-0.0033171935938298702,-999.9639892578125,0.04164617881178856,-0.040389806032180786,-0.02417907677590847
1261,995,0.5257151126861572,-0.0033171935938298702,-999.9639892578125,0.04164617881178856,-0.040389806032180786,-0.02417907677590847
1281,995,0.5257151126861572,-0.0033171935938298702,-999.9639892578125,0.04164617881178856,-0.040389806032180786,-0.02417907677590847
1204,995,0.5257151126861572,-0.0033171935938298702,-999.9639892578125,0.04164617881178856,-0.040389806032180786,-0.02417907677590847
1180,995,0.5257151126861572,-0.0033171935938298702,-999.9639892578125,0.04164617881178856,-0.040389806032180786,-0.02417907677590847
1192,995,0.5257151126861572,-0.0033171935938298702,-999.9639892578125,0.04164617881178856,-0.040389806032180786,-0.02417907677590847
1212,995,0.5257151126861572,-0.0033171935938298702,-999.9639892578125,0.04164617881178856,-0.040389806032180786,-0.02417907677590847
1281,996,0.5248910784721375,0.13847804069519043,-1000.0523071289062,-0.210932195186615,0.008410480804741383,0.061895206570625305
1261,996,0.5248910784721375,0.13847804069519043,-1000.0523071289062,-0.210932195186615,0.008410480804741383,0.061895206570625305
1248,996,0.5248910784721375,0.13847804069519043,-1000.0523071289062,-0.210932195186615,0.008410480804741383,0.061895206570625305
1274,996,0.5248910784721375,0.13847804069519043,-1000.0523071289062,-0.210932195186615,0.008410480804741383,0.061895206570625305
1212,996,0.5248910784721375,0.13847804069519043,-1000.0523071289062,-0.210932195186615,0.008410480804741383,0.061895206570625305
1192,996,0.5248910784721375,0.13847804069519043,-1000.0523071289062,-0.210932195186615,0.008410480804741383,0.061895206570625305
1179,996,0.5248910784721375,0.13847804069519043,-1000.0523071289062,-0.210932195186615,0.008410480804741383,0.061895206570625305
1205,996,0.5248910784721375,0.13847804069519043,-1000.0523071289062,-0.210932195186615,0.008410480804741383,0.061895206570625305
1274,997,0.3625562787055969,0.5529485940933228,-999.9461059570312,-0.22339175641536713,-0.024758614599704742,-0.05306017026305199
1248,997,0.3625562787055969,0.5529485940933228,-999.9461059570312,-0.22339175641536713,-0.024758614599704742,-0.05306017026305199
1247,997,0.3625562787055969,0.5529485940933228,-999.9461059570312,-0.22339175641536713,-0.024758614599704742,-0.05306017026305199
1275,997,0.3625562787055969,0.5529485940933228,-999.9461059570312,-0.22339175641536713,-0.024758614599704742,-0.05306017026305199
1205,997,0.3625562787055969,0.5529485940933228,-999.9461059570312,-0.22339175641536713,-0.024758614599704742,-0.05306017026305199
1179,997,0.3625562787055969,0.5529485940933228,-999.9461059570312,-0.22339175641536713,-0.024758614599704742,-0.05306017026305199
1178,997,0.3625562787055969,0.5529485940933228,-999.9461059570312,-0.22339175641536713,-0.024758614599704742,-0.05306017026305199
1206,997,0.3625562787055969,0.5529485940933228,-999.9461059570312,-0.22339175641536713,-0.024758614599704742,-0.05306017026305199
1275,998,0.07585864514112473,0.469748318195343,-1000.053466796875,-0.03278113156557083,-0.015727773308753967,0.07123535126447678
1247,998,0.07585864514112473,0.469748318195343,-1000.053466796875,-0.03278113156557083,-0.015727773308753967,0.07123535126447678
1260,998,0.07585864514112473,0.469748318195343,-1000.053466796875,-0.03278113156557083,-0.015727773308753967,0.07123535126447678
1280,998,0.07585864514112473,0.469748318195343,-1000.053466796875,-0.03278113156557083,-0.015727773308753967,0.07123535126447678
1206,998,0.07585864514112473,0.469748318195343,-1000.053466796875,-0.03278113156557083,-0.015727773308753967,0.07123535126447678
1178,998,0.07585864514112473,0.469748318195343,-1000.053466796875,-0.03278113156557083,-0.015727773308753967,0.07123535126447678
1191,998,0.07585864514112473,0.469748318195343,-1000.053466796875,-0.03278113156557083,-0.015727773308753967,0.07123535126447678
1211,998,0.07585864514112473,0.469748318195343,-1000.053466796875,-0.03278113156557083,-0.015727773308753967,0.07123535126447678
1280,999,0.14193488657474518,0.41143080592155457,-999.9635620117188,0.04717928543686867,-0.016836615279316902,0.04834213852882385
1260,999,0.14193488657474518,0.41143080592155457,-999.9635620117188,0.04717928543686867,-0.016836615279316902,0.04834213852882385
1246,999,0.14193488657474518,0.41143080592155457,-999.9635620117188,0.04717928543686867,-0.016836615279316902,0.04834213852882385
1276,999,0.14193488657474518,0.41143080592155457,-999.9635620117188,0.04717928543686867,-0.016836615279316902,0.04834213852882385
1211,999,0.14193488657474518,0.41143080592155457,-999.9635620117188,0.04717928543686867,-0.016836615279316902,0.04834213852882385
1191,999,0.14193488657474518,0.41143080592155457,-999.9635620117188,0.04717928543686867,-0.016836615279316902,0.04834213852882385
1177,999,0.14193488657474518,0.41143080592155457,-999.9635620117188,0.04717928543686867,-0.016836615279316902,0.04834213852882385
1207,999,0.14193488657474518,0.41143080592155457,-999.9635620117188,0.04717928543686867,-0.016836615279316902,0.04834213852882385
1300,1000,0.7589920163154602,0.809993326663971,-999.9581298828125,0.32980048656463623,-0.04237790405750275,0.05856449156999588
1245,1000,0.7589920163154602,0.809993326663971,-999.9581298828125,0.32980048656463623,-0.04237790405750275,0.05856449156999588
1244,1000,0.7589920163154602,0.809993326663971,-999.9581298828125,0.32980048656463623,-0.04237790405750275,0.05856449156999588
1301,1000,0.7589920163154602,0.809993326663971,-999.9581298828125,0.32980048656463623,-0.04237790405750275,0.05856449156999588
1231,1000,0.7589920163154602,0.809993326663971,-999.9581298828125,0.32980048656463623,-0.04237790405750275,0.05856449156999588
1176,1000,0.7589920163154602,0.809993326663971,-999.9581298828125,0.32980048656463623,-0.04237790405750275,0.05856449156999588
1175,1000,0.7589920163154602,0.809993326663971,-999.9581298828125,0.32980048656463623,-0.04237790405750275,0.05856449156999588
1232,1000,0.7589920163154602,0.809993326663971,-999.9581298828125,0.32980048656463623,-0.04237790405750275,0.05856449156999588
1279,1001,0.06452387571334839,0.2083660364151001,-1000.021240234375,0.12030792236328125,0.028818879276514053,0.06917757540941238
1259,1001,0.06452387571334839,0.2083660364151001,-1000.021240234375,0.12030792236328125,0.028818879276514053,0.06917757540941238
1243,1001,0.06452387571334839,0.2083660364151001,-1000.021240234375,0.12030792236328125,0.028818879276514053,0.06917757540941238
1278,1001,0.06452387571334839,0.2083660364151001,-1000.021240234375,0.12030792236328125,0.028818879276514053,0.06917757540941238
1210,1001,0.06452387571334839,0.2083660364151001,-1000.021240234375,0.12030792236328125,0.028818879276514053,0.06917757540941238
1190,1001,0.06452387571334839,0.2083660364151001,-1000.021240234375,0.12030792236328125,0.028818879276514053,0.06917757540941238
1174,1001,0.06452387571334839,0.2083660364151001,-1000.021240234375,0.12030792236328125,0.028818879276514053,0.06917757540941238
1209,1001,0.06452387571334839,0.2083660364151001,-1000.021240234375,0.12030792236328125,0.028818879276514053,0.06917757540941238
1302,1002,-1.2444462776184082,-1.389910101890564,-1000.5239868164062,-0.25424084067344666,-0.012749013490974903,-0.18496239185333252
1278,1002,-1.2444462776184082,-1.389910101890564,-1000.5239868164062,-0.25424084067344666,-0.012749013490974903,-0.18496239185333252
1270,1002,-1.2444462776184082,-1.389910101890564,-1000.5239868164062,-0.25424084067344666,-0.012749013490974903,-0.18496239185333252
1285,1002,-1.2444462776184082,-1.389910101890564,-1000.5239868164062,-0.25424084067344666,-0.012749013490974903,-0.18496239185333252
1233,1002,-1.2444462776184082,-1.389910101890564,-1000.5239868164062,-0.25424084067344666,-0.012749013490974903,-0.18496239185333252
1209,1002,-1.2444462776184082,-1.389910101890564,-1000.5239868164062,-0.25424084067344666,-0.012749013490974903,-0.18496239185333252
1201,1002,-1.2444462776184082,-1.389910101890564,-1000.5239868164062,-0.25424084067344666,-0.012749013490974903,-0.18496239185333252
1216,1002,-1.2444462776184082,-1.389910101890564,-1000.5239868164062,-0.25424084067344666,-0.012749013490974903,-0.18496239185333252
1301,1003,-0.5875831246376038,-1.249155879020691,-1000.26904296875,-0.15074831247329712,-0.08893729746341705,-0.0977296382188797
1279,1003,-0.5875831246376038,-1.249155879020691,-1000.26904296875,-0.15074831247329712,-0.08893729746341705,-0.0977296382188797
1291,1003,-0.5875831246376038,-1.249155879020691,-1000.26904296875,-0.15074831247329712,-0.08893729746341705,-0.0977296382188797
1277,1003,-0.5875831246376038,-1.249155879020691,-1000.26904296875,-0.15074831247329712,-0.08893729746341705,-0.0977296382188797
1232,1003,-0.5875831246376038,-1.249155879020691,-1000.26904296875,-0.15074831247329712,-0.08893729746341705,-0.0977296382188797
1210,1003,-0.5875831246376038,-1.249155879020691,-1000.26904296875,-0.15074831247329712,-0.08893729746341705,-0.0977296382188797
1222,1003,-0.5875831246376038,-1.249155879020691,-1000.26904296875,-0.15074831247329712,-0.08893729746341705,-0.0977296382188797
1208,1003,-0.5875831246376038,-1.249155879020691,-1000.26904296875,-0.15074831247329712,-0.08893729746341705,-0.0977296382188797
1276,1004,0.23725487291812897,0.43769681453704834,-1000.015625,0.28591516613960266,0.010203661397099495,-0.0010579850059002638
1246,1004,0.23725487291812897,0.43769681453704834,-1000.015625,0.28591516613960266,0.010203661397099495,-0.0010579850059002638
1245,1004,0.23725487291812897,0.43769681453704834,-1000.015625,0.28591516613960266,0.010203661397099495,-0.0010579850059002638
1300,1004,0.23725487291812897,0.43769681453704834,-1000.015625,0.28591516613960266,0.010203661397099495,-0.0010579850059002638
1207,1004,0.23725487291812897,0.43769681453704834,-1000.015625,0.28591516613960266,0.010203661397099495,-0.0010579850059002638
1177,1004,0.23725487291812897,0.43769681453704834,-1000.015625,0.28591516613960266,0.010203661397099495,-0.0010579850059002638
1176,1004,0.23725487291812897,0.43769681453704834,-1000.015625,0.28591516613960266,0.010203661397099495,-0.0010579850059002638
1231,1004,0.23725487291812897,0.43769681453704834,-1000.015625,0.28591516613960266,0.010203661397099495,-0.0010579850059002638
1285,1005,-0.19770780205726624,0.886206865310669,-999.40673828125,0.007272009737789631,-0.34963563084602356,0.37425413727760315
1270,1005,-0.19770780205726624,0.886206865310669,-999.40673828125,0.007272009737789631,-0.34963563084602356,0.37425413727760315
1267,1005,-0.19770780205726624,0.886206865310669,-999.40673828125,0.007272009737789631,-0.34963563084602356,0.37425413727760315
1311,1005,-0.19770780205726624,0.886206865310669,-999.40673828125,0.007272009737789631,-0.34963563084602356,0.37425413727760315
1216,1005,-0.19770780205726624,0.886206865310669,-999.40673828125,0.007272009737789631,-0.34963563084602356,0.37425413727760315
1201,1005,-0.19770780205726624,0.886206865310669,-999.40673828125,0.007272009737789631,-0.34963563084602356,0.37425413727760315
1198,1005,-0.19770780205726624,0.886206865310669,-999.40673828125,0.007272009737789631,-0.34963563084602356,0.37425413727760315
1242,1005,-0.19770780205726624,0.886206865310669,-999.40673828125,0.007272009737789631,-0.34963563084602356,0.37425413727760315
1296,1006,-0.03534681722521782,-0.265730619430542,-1000.0726318359375,-0.4440320134162903,0.048868440091609955,0.08316542953252792
1311,1006,-0.03534681722521782,-0.265730619430542,-1000.0726318359375,-0.4440320134162903,0.048868440091609955,0.08316542953252792
1287,1006,-0.03534681722521782,-0.265730619430542,-1000.0726318359375,-0.4440320134162903,0.048868440091609955,0.08316542953252792
1295,1006,-0.03534681722521782,-0.265730619430542,-1000.0726318359375,-0.4440320134162903,0.048868440091609955,0.08316542953252792
1227,1006,-0.03534681722521782,-0.265730619430542,-1000.0726318359375,-0.4440320134162903,0.048868440091609955,0.08316542953252792
1242,1006,-0.03534681722521782,-0.265730619430542,-1000.0726318359375,-0.4440320134162903,0.048868440091609955,0.08316542953252792
1218,1006,-0.03534681722521782,-0.265730619430542,-1000.0726318359375,-0.4440320134162903,0.048868440091609955,0.08316542953252792
1226,1006,-0.03534681722521782,-0.265730619430542,-1000.0726318359375,-0.4440320134162903,0.048868440091609955,0.08316542953252792
1266,1007,0.0035582678392529488,-0.5716735124588013,-999.5042114257812,0.21558044850826263,-0.13426445424556732,0.19093666970729828
1283,1007,0.0035582678392529488,-0.5716735124588013,-999.5042114257812,0.21558044850826263,-0.13426445424556732,0.19093666970729828
1305,1007,0.0035582678392529488,-0.5716735124588013,-999.5042114257812,0.21558044850826263,-0.13426445424556732,0.19093666970729828
1290,1007,0.0035582678392529488,-0.5716735124588013,-999.5042114257812,0.21558044850826263,-0.13426445424556732,0.19093666970729828
1197,1007,0.0035582678392529488,-0.5716735124588013,-999.5042114257812,0.21558044850826263,-0.13426445424556732,0.19093666970729828
1214,1007,0.0035582678392529488,-0.5716735124588013,-999.5042114257812,0.21558044850826263,-0.13426445424556732,0.19093666970729828
1236,1007,0.0035582678392529488,-0.5716735124588013,-999.5042114257812,0.21558044850826263,-0.13426445424556732,0.19093666970729828
1221,1007,0.0035582678392529488,-0.5716735124588013,-999.5042114257812,0.21558044850826263,-0.13426445424556732,0.19093666970729828
1290,1008,-0.24524222314357758,0.9907151460647583,-1000.0147705078125,0.014002205803990364,0.07104019820690155,-0.2707807123661041
1305,1008,-0.24524222314357758,0.9907151460647583,-1000.0147705078125,0.014002205803990364,0.07104019820690155,-0.2707807123661041
1289,1008,-0.24524222314357758,0.9907151460647583,-1000.0147705078125,0.014002205803990364,0.07104019820690155,-0.2707807123661041
1295,1008,-0.24524222314357758,0.9907151460647583,-1000.0147705078125,0.014002205803990364,0.07104019820690155,-0.2707807123661041
1221,1008,-0.24524222314357758,0.9907151460647583,-1000.0147705078125,0.014002205803990364,0.07104019820690155,-0.2707807123661041
1236,1008,-0.24524222314357758,0.9907151460647583,-1000.0147705078125,0.014002205803990364,0.07104019820690155,-0.2707807123661041
1220,1008,-0.24524222314357758,0.9907151460647583,-1000.0147705078125,0.014002205803990364,0.07104019820690155,-0.2707807123661041
1226,1008,-0.24524222314357758,0.9907151460647583,-1000.0147705078125,0.014002205803990364,0.07104019820690155,-0.2707807123661041
1292,1009,-0.5695863962173462,-0.8868078589439392,-1000.1148071289062,-0.2153668850660324,0.03733082488179207,-0.18251897394657135
1280,1009,-0.5695863962173462,-0.8868078589439392,-1000.1148071289062,-0.2153668850660324,0.03733082488179207,-0.18251897394657135
1276,1009,-0.5695863962173462,-0.8868078589439392,-1000.1148071289062,-0.2153668850660324,0.03733082488179207,-0.18251897394657135
1300,1009,-0.5695863962173462,-0.8868078589439392,-1000.1148071289062,-0.2153668850660324,0.03733082488179207,-0.18251897394657135
1223,1009,-0.5695863962173462,-0.8868078589439392,-1000.1148071289062,-0.2153668850660324,0.03733082488179207,-0.18251897394657135
1211,1009,-0.5695863962173462,-0.8868078589439392,-1000.1148071289062,-0.2153668850660324,0.03733082488179207,-0.18251897394657135
1207,1009,-0.5695863962173462,-0.8868078589439392,-1000.1148071289062,-0.2153668850660324,0.03733082488179207,-0.18251897394657135
1231,1009,-0.5695863962173462,-0.8868078589439392,-1000.1148071289062,-0.2153668850660324,0.03733082488179207,-0.18251897394657135
1290,1010,0.696852445602417,1.0230743885040283,-999.8316040039062,-0.1549610048532486,0.23121637105941772,0.08501563221216202
1295,1010,0.696852445602417,1.0230743885040283,-999.8316040039062,-0.1549610048532486,0.23121637105941772,0.08501563221216202
1287,1010,0.696852445602417,1.0230743885040283,-999.8316040039062,-0.1549610048532486,0.23121637105941772,0.08501563221216202
1304,1010,0.696852445602417,1.0230743885040283,-999.8316040039062,-0.1549610048532486,0.23121637105941772,0.08501563221216202
1221,1010,0.696852445602417,1.0230743885040283,-999.8316040039062,-0.1549610048532486,0.23121637105941772,0.08501563221216202
1226,1010,0.696852445602417,1.0230743885040283,-999.8316040039062,-0.1549610048532486,0.23121637105941772,0.08501563221216202
1218,1010,0.696852445602417,1.0230743885040283,-999.8316040039062,-0.1549610048532486,0.23121637105941772,0.08501563221216202
1235,1010,0.696852445602417,1.0230743885040283,-999.8316040039062,-0.1549610048532486,0.23121637105941772,0.08501563221216202
1268,1011,-0.355257123708725,-1.4173425436019897,-999.8839111328125,0.13916975259780884,-0.0048276945017278194,0.12049581110477448
1299,1011,-0.355257123708725,-1.4173425436019897,-999.8839111328125,0.13916975259780884,-0.0048276945017278194,0.12049581110477448
1306,1011,-0.355257123708725,-1.4173425436019897,-999.8839111328125,0.13916975259780884,-0.0048276945017278194,0.12049581110477448
1289,1011,-0.355257123708725,-1.4173425436019897,-999.8839111328125,0.13916975259780884,-0.0048276945017278194,0.12049581110477448
1199,1011,-0.355257123708725,-1.4173425436019897,-999.8839111328125,0.13916975259780884,-0.0048276945017278194,0.12049581110477448
1230,1011,-0.355257123708725,-1.4173425436019897,-999.8839111328125,0.13916975259780884,-0.0048276945017278194,0.12049581110477448
1237,1011,-0.355257123708725,-1.4173425436019897,-999.8839111328125,0.13916975259780884,-0.0048276945017278194,0.12049581110477448
1220,1011,-0.355257123708725,-1.4173425436019897,-999.8839111328125,0.13916975259780884,-0.0048276945017278194,0.12049581110477448
1310,1012,0.6476359963417053,0.7431591749191284,-1000.0433349609375,0.18925608694553375,-0.2610199749469757,0.2802441716194153
1292,1012,0.6476359963417053,0.7431591749191284,-1000.0433349609375,0.18925608694553375,-0.2610199749469757,0.2802441716194153
1277,1012,0.6476359963417053,0.7431591749191284,-1000.0433349609375,0.18925608694553375,-0.2610199749469757,0.2802441716194153
1298,1012,0.6476359963417053,0.7431591749191284,-1000.0433349609375,0.18925608694553375,-0.2610199749469757,0.2802441716194153
1241,1012,0.6476359963417053,0.7431591749191284,-1000.0433349609375,0.18925608694553375,-0.2610199749469757,0.2802441716194153
1223,1012,0.6476359963417053,0.7431591749191284,-1000.0433349609375,0.18925608694553375,-0.2610199749469757,0.2802441716194153
1208,1012,0.6476359963417053,0.7431591749191284,-1000.0433349609375,0.18925608694553375,-0.2610199749469757,0.2802441716194153
1229,1012,0.6476359963417053,0.7431591749191284,-1000.0433349609375,0.18925608694553375,-0.2610199749469757,0.2802441716194153
1286,1013,1.2927325963974,-0.18142297863960266,-999.9361572265625,0.059924304485321045,-0.22660808265209198,-0.07092168182134628
1308,1013,1.2927325963974,-0.18142297863960266,-999.9361572265625,0.059924304485321045,-0.22660808265209198,-0.07092168182134628
1293,1013,1.2927325963974,-0.18142297863960266,-999.9361572265625,0.059924304485321045,-0.22660808265209198,-0.07092168182134628
1297,1013,1.2927325963974,-0.18142297863960266,-999.9361572265625,0.059924304485321045,-0.22660808265209198,-0.07092168182134628
1217,1013,1.2927325963974,-0.18142297863960266,-999.9361572265625,0.059924304485321045,-0.22660808265209198,-0.07092168182134628
1239,1013,1.2927325963974,-0.18142297863960266,-999.9361572265625,0.059924304485321045,-0.22660808265209198,-0.07092168182134628
1224,1013,1.2927325963974,-0.18142297863960266,-999.9361572265625,0.059924304485321045,-0.22660808265209198,-0.07092168182134628
1228,1013,1.2927325963974,-0.18142297863960266,-999.9361572265625,0.059924304485321045,-0.22660808265209198,-0.07092168182134628
1309,1014,0.09938128292560577,0.262179970741272,-999.7434692382812,0.7102869749069214,0.12558476626873016,-0.07095283269882202
1281,1014,0.09938128292560577,0.262179970741272,-999.7434692382812,0.7102869749069214,0.12558476626873016,-0.07095283269882202
1274,1014,0.09938128292560577,0.262179970741272,-999.7434692382812,0.7102869749069214,0.12558476626873016,-0.07095283269882202
1288,1014,0.09938128292560577,0.262179970741272,-999.7434692382812,0.7102869749069214,0.12558476626873016,-0.07095283269882202
1240,1014,0.09938128292560577,0.262179970741272,-999.7434692382812,0.7102869749069214,0.12558476626873016,-0.07095283269882202
1212,1014,0.09938128292560577,0.262179970741272,-999.7434692382812,0.7102869749069214,0.12558476626873016,-0.07095283269882202
1205,1014,0.09938128292560577,0.262179970741272,-999.7434692382812,0.7102869749069214,0.12558476626873016,-0.07095283269882202
1219,1014,0.09938128292560577,0.262179970741272,-999.7434692382812,0.7102869749069214,0.12558476626873016,-0.07095283269882202
1298,1015,-0.3025014102458954,0.34807446599006653,-999.9571533203125,-0.3907138705253601,0.09769326448440552,-0.15321074426174164
1297,1015,-0.3025014102458954,0.34807446599006653,-999.9571533203125,-0.3907138705253601,0.09769326448440552,-0.15321074426174164
1288,1015,-0.3025014102458954,0.34807446599006653,-999.9571533203125,-0.3907138705253601,0.09769326448440552,-0.15321074426174164
1310,1015,-0.3025014102458954,0.34807446599006653,-999.9571533203125,-0.3907138705253601,0.09769326448440552,-0.15321074426174164
1229,1015,-0.3025014102458954,0.34807446599006653,-999.9571533203125,-0.3907138705253601,0.09769326448440552,-0.15321074426174164
1228,1015,-0.3025014102458954,0.34807446599006653,-999.9571533203125,-0.3907138705253601,0.09769326448440552,-0.15321074426174164
1219,1015,-0.3025014102458954,0.34807446599006653,-999.9571533203125,-0.3907138705253601,0.09769326448440552,-0.15321074426174164
1241,1015,-0.3025014102458954,0.34807446599006653,-999.9571533203125,-0.3907138705253601,0.09769326448440552,-0.15321074426174164
1298,1016,-0.13750725984573364,-0.7787415385246277,-1000.0577392578125,0.027343664318323135,-0.5592831969261169,-0.12594887614250183
1303,1016,-0.13750725984573364,-0.7787415385246277,-1000.0577392578125,0.027343664318323135,-0.5592831969261169,-0.12594887614250183
1296,1016,-0.13750725984573364,-0.7787415385246277,-1000.0577392578125,0.027343664318323135,-0.5592831969261169,-0.12594887614250183
1295,1016,-0.13750725984573364,-0.7787415385246277,-1000.0577392578125,0.027343664318323135,-0.5592831969261169,-0.12594887614250183
1229,1016,-0.13750725984573364,-0.7787415385246277,-1000.0577392578125,0.027343664318323135,-0.5592831969261169,-0.12594887614250183
1234,1016,-0.13750725984573364,-0.7787415385246277,-1000.0577392578125,0.027343664318323135,-0.5592831969261169,-0.12594887614250183
1227,1016,-0.13750725984573364,-0.7787415385246277,-1000.0577392578125,0.027343664318323135,-0.5592831969261169,-0.12594887614250183
1226,1016,-0.13750725984573364,-0.7787415385246277,-1000.0577392578125,0.027343664318323135,-0.5592831969261169,-0.12594887614250183
1288,1017,0.9753378629684448,0.6121536493301392,-1000.0060424804688,-0.18961402773857117,-0.22782191634178162,0.32730984687805176
1297,1017,0.9753378629684448,0.6121536493301392,-1000.0060424804688,-0.18961402773857117,-0.22782191634178162,0.32730984687805176
1293,1017,0.9753378629684448,0.6121536493301392,-1000.0060424804688,-0.18961402773857117,-0.22782191634178162,0.32730984687805176
1309,1017,0.9753378629684448,0.6121536493301392,-1000.0060424804688,-0.18961402773857117,-0.22782191634178162,0.32730984687805176
1219,1017,0.9753378629684448,0.6121536493301392,-1000.0060424804688,-0.18961402773857117,-0.22782191634178162,0.32730984687805176
1228,1017,0.9753378629684448,0.6121536493301392,-1000.0060424804688,-0.18961402773857117,-0.22782191634178162,0.32730984687805176
1224,1017,0.9753378629684448,0.6121536493301392,-1000.0060424804688,-0.18961402773857117,-0.22782191634178162,0.32730984687805176
1240,1017,0.9753378629684448,0.6121536493301392,-1000.0060424804688,-0.18961402773857117,-0.22782191634178162,0.32730984687805176
1299,1018,0.22163736820220947,0.6402460336685181,-1000.0176391601562,0.2187982052564621,-0.031031062826514244,0.022323086857795715
1253,1018,0.22163736820220947,0.6402460336685181,-1000.0176391601562,0.2187982052564621,-0.031031062826514244,0.022323086857795715
1252,1018,0.22163736820220947,0.6402460336685181,-1000.0176391601562,0.2187982052564621,-0.031031062826514244,0.022323086857795715
1269,1018,0.22163736820220947,0.6402460336685181,-1000.0176391601562,0.2187982052564621,-0.031031062826514244,0.022323086857795715
1230,1018,0.22163736820220947,0.6402460336685181,-1000.0176391601562,0.2187982052564621,-0.031031062826514244,0.022323086857795715
1184,1018,0.22163736820220947,0.6402460336685181,-1000.0176391601562,0.2187982052564621,-0.031031062826514244,0.022323086857795715
1183,1018,0.22163736820220947,0.6402460336685181,-1000.0176391601562,0.2187982052564621,-0.031031062826514244,0.022323086857795715
1200,1018,0.22163736820220947,0.6402460336685181,-1000.0176391601562,0.2187982052564621,-0.031031062826514244,0.022323086857795715
1301,1019,0.3137778639793396,0.6152383685112,-999.985595703125,0.3098800778388977,0.0691019743680954,-0.05428038910031319
1244,1019,0.3137778639793396,0.6152383685112,-999.985595703125,0.3098800778388977,0.0691019743680954,-0.05428038910031319
1259,1019,0.3137778639793396,0.6152383685112,-999.985595703125,0.3098800778388977,0.0691019743680954,-0.05428038910031319
1279,1019,0.3137778639793396,0.6152383685112,-999.985595703125,0.3098800778388977,0.0691019743680954,-0.05428038910031319
1232,1019,0.3137778639793396,0.6152383685112,-999.985595703125,0.3098800778388977,0.0691019743680954,-0.05428038910031319
1175,1019,0.3137778639793396,0.6152383685112,-999.985595703125,0.3098800778388977,0.0691019743680954,-0.05428038910031319
1190,1019,0.3137778639793396,0.6152383685112,-999.985595703125,0.3098800778388977,0.0691019743680954,-0.05428038910031319
1210,1019,0.3137778639793396,0.6152383685112,-999.985595703125,0.3098800778388977,0.0691019743680954,-0.05428038910031319
1278,1020,0.2900104224681854,0.3056896924972534,-999.6497192382812,-0.3060522973537445,-0.2798813283443451,0.08064396679401398
1302,1020,0.2900104224681854,0.3056896924972534,-999.6497192382812,-0.3060522973537445,-0.2798813283443451,0.08064396679401398
1291,1020,0.2900104224681854,0.3056896924972534,-999.6497192382812,-0.3060522973537445,-0.2798813283443451,0.08064396679401398
1279,1020,0.2900104224681854,0.3056896924972534,-999.6497192382812,-0.3060522973537445,-0.2798813283443451,0.08064396679401398
1209,1020,0.2900104224681854,0.3056896924972534,-999.6497192382812,-0.3060522973537445,-0.2798813283443451,0.08064396679401398
1233,1020,0.2900104224681854,0.3056896924972534,-999.6497192382812,-0.3060522973537445,-0.2798813283443451,0.08064396679401398
1222,1020,0.2900104224681854,0.3056896924972534,-999.6497192382812,-0.3060522973537445,-0.2798813283443451,0.08064396679401398
1210,1020,0.2900104224681854,0.3056896924972534,-999.6497192382812,-0.3060522973537445,-0.2798813283443451,0.08064396679401398
1302,1021,1.1031508445739746,0.6314718127250671,-999.7987670898438,0.34904196858406067,0.6468904614448547,-0.31609609723091125
1285,1021,1.1031508445739746,0.6314718127250671,-999.7987670898438,0.34904196858406067,0.6468904614448547,-0.31609609723091125
1311,1021,1.1031508445739746,0.6314718127250671,-999.7987670898438,0.34904196858406067,0.6468904614448547,-0.31609609723091125
1296,1021,1.1031508445739746,0.6314718127250671,-999.7987670898438,0.34904196858406067,0.6468904614448547,-0.31609609723091125
1233,1021,1.1031508445739746,0.6314718127250671,-999.7987670898438,0.34904196858406067,0.6468904614448547,-0.31609609723091125
1216,1021,1.1031508445739746,0.6314718127250671,-999.7987670898438,0.34904196858406067,0.6468904614448547,-0.31609609723091125
1242,1021,1.1031508445739746,0.6314718127250671,-999.7987670898438,0.34904196858406067,0.6468904614448547,-0.31609609723091125
1227,1021,1.1031508445739746,0.6314718127250671,-999.7987670898438,0.34904196858406067,0.6468904614448547,-0.31609609723091125
1304,1022,-0.5442396998405457,-1.6638820171356201,-1000.6754760742188,-0.0664718747138977,-0.1448027789592743,-0.18339185416698456
1265,1022,-0.5442396998405457,-1.6638820171356201,-1000.6754760742188,-0.0664718747138977,-0.1448027789592743,-0.18339185416698456
1266,1022,-0.5442396998405457,-1.6638820171356201,-1000.6754760742188,-0.0664718747138977,-0.1448027789592743,-0.18339185416698456
1290,1022,-0.5442396998405457,-1.6638820171356201,-1000.6754760742188,-0.0664718747138977,-0.1448027789592743,-0.18339185416698456
1235,1022,-0.5442396998405457,-1.6638820171356201,-1000.6754760742188,-0.0664718747138977,-0.1448027789592743,-0.18339185416698456
1196,1022,-0.5442396998405457,-1.6638820171356201,-1000.6754760742188,-0.0664718747138977,-0.1448027789592743,-0.18339185416698456
1197,1022,-0.5442396998405457,-1.6638820171356201,-1000.6754760742188,-0.0664718747138977,-0.1448027789592743,-0.18339185416698456
1221,1022,-0.5442396998405457,-1.6638820171356201,-1000.6754760742188,-0.0664718747138977,-0.1448027789592743,-0.18339185416698456
1305,1023,-0.28729331493377686,-1.0899653434753418,-1000.3399658203125,-0.1722676008939743,0.1060011014342308,0.060974035412073135
1283,1023,-0.28729331493377686,-1.0899653434753418,-1000.3399658203125,-0.1722676008939743,0.1060011014342308,0.060974035412073135
1268,1023,-0.28729331493377686,-1.0899653434753418,-1000.3399658203125,-0.1722676008939743,0.1060011014342308,0.060974035412073135
1289,1023,-0.28729331493377686,-1.0899653434753418,-1000.3399658203125,-0.1722676008939743,0.1060011014342308,0.060974035412073135
1236,1023,-0.28729331493377686,-1.0899653434753418,-1000.3399658203125,-0.1722676008939743,0.1060011014342308,0.060974035412073135
1214,1023,-0.28729331493377686,-1.0899653434753418,-1000.3399658203125,-0.1722676008939743,0.1060011014342308,0.060974035412073135
1199,1023,-0.28729331493377686,-1.0899653434753418,-1000.3399658203125,-0.1722676008939743,0.1060011014342308,0.060974035412073135
1220,1023,-0.28729331493377686,-1.0899653434753418,-1000.3399658203125,-0.1722676008939743,0.1060011014342308,0.060974035412073135
1307,1024,-0.4581455886363983,0.312589555978775,-999.9535522460938,0.03240280970931053,0.34929966926574707,-0.053791213780641556
1282,1024,-0.4581455886363983,0.312589555978775,-999.9535522460938,0.03240280970931053,0.34929966926574707,-0.053791213780641556
1271,1024,-0.4581455886363983,0.312589555978775,-999.9535522460938,0.03240280970931053,0.34929966926574707,-0.053791213780641556
1286,1024,-0.4581455886363983,0.312589555978775,-999.9535522460938,0.03240280970931053,0.34929966926574707,-0.053791213780641556
1238,1024,-0.4581455886363983,0.312589555978775,-999.9535522460938,0.03240280970931053,0.34929966926574707,-0.053791213780641556
1213,1024,-0.4581455886363983,0.312589555978775,-999.9535522460938,0.03240280970931053,0.34929966926574707,-0.053791213780641556
1202,1024,-0.4581455886363983,0.312589555978775,-999.9535522460938,0.03240280970931053,0.34929966926574707,-0.053791213780641556
1217,1024,-0.4581455886363983,0.312589555978775,-999.9535522460938,0.03240280970931053,0.34929966926574707,-0.053791213780641556
1308,1025,-0.6447513103485107,0.2898660898208618,-999.769287109375,0.26433926820755005,0.28542494773864746,-0.1173272430896759
1272,1025,-0.6447513103485107,0.2898660898208618,-999.769287109375,0.26433926820755005,0.28542494773864746,-0.1173272430896759
1273,1025,-0.6447513103485107,0.2898660898208618,-999.769287109375,0.26433926820755005,0.28542494773864746,-0.1173272430896759
1293,1025,-0.6447513103485107,0.2898660898208618,-999.769287109375,0.26433926820755005,0.28542494773864746,-0.1173272430896759
1239,1025,-0.6447513103485107,0.2898660898208618,-999.769287109375,0.26433926820755005,0.28542494773864746,-0.1173272430896759
1203,1025,-0.6447513103485107,0.2898660898208618,-999.769287109375,0.26433926820755005,0.28542494773864746,-0.1173272430896759
1204,1025,-0.6447513103485107,0.2898660898208618,-999.769287109375,0.26433926820755005,0.28542494773864746,-0.1173272430896759
1224,1025,-0.6447513103485107,0.2898660898208618,-999.769287109375,0.26433926820755005,0.28542494773864746,-0.1173272430896759
1310,1026,0.38472452759742737,-0.11217563599348068,-999.8336181640625,0.2523217499256134,0.10321810841560364,-0.11852846294641495
1275,1026,0.38472452759742737,-0.11217563599348068,-999.8336181640625,0.2523217499256134,0.10321810841560364,-0.11852846294641495
1280,1026,0.38472452759742737,-0.11217563599348068,-999.8336181640625,0.2523217499256134,0.10321810841560364,-0.11852846294641495
1292,1026,0.38472452759742737,-0.11217563599348068,-999.8336181640625,0.2523217499256134,0.10321810841560364,-0.11852846294641495
1241,1026,0.38472452759742737,-0.11217563599348068,-999.8336181640625,0.2523217499256134,0.10321810841560364,-0.11852846294641495
1206,1026,0.38472452759742737,-0.11217563599348068,-999.8336181640625,0.2523217499256134,0.10321810841560364,-0.11852846294641495
1211,1026,0.38472452759742737,-0.11217563599348068,-999.8336181640625,0.2523217499256134,0.10321810841560364,-0.11852846294641495
1223,1026,0.38472452759742737,-0.11217563599348068,-999.8336181640625,0.2523217499256134,0.10321810841560364,-0.11852846294641495
1335,1027,-0.09910762310028076,-0.6928414702415466,-1000.0013427734375,-0.0043109399266541,-0.053942225873470306,-0.024924978613853455
1324,1027,-0.09910762310028076,-0.6928414702415466,-1000.0013427734375,-0.0043109399266541,-0.053942225873470306,-0.024924978613853455
1323,1027,-0.09910762310028076,-0.6928414702415466,-1000.0013427734375,-0.0043109399266541,-0.053942225873470306,-0.024924978613853455
1352,1027,-0.09910762310028076,-0.6928414702415466,-1000.0013427734375,-0.0043109399266541,-0.053942225873470306,-0.024924978613853455
1266,1027,-0.09910762310028076,-0.6928414702415466,-1000.0013427734375,-0.0043109399266541,-0.053942225873470306,-0.024924978613853455
1255,1027,-0.09910762310028076,-0.6928414702415466,-1000.0013427734375,-0.0043109399266541,-0.053942225873470306,-0.024924978613853455
1254,1027,-0.09910762310028076,-0.6928414702415466,-1000.0013427734375,-0.0043109399266541,-0.053942225873470306,-0.024924978613853455
1283,1027,-0.09910762310028076,-0.6928414702415466,-1000.0013427734375,-0.0043109399266541,-0.053942225873470306,-0.024924978613853455
1352,1028,-0.23622721433639526,-0.8298225998878479,-999.969482421875,0.07132043689489365,0.03511560708284378,0.06442861258983612
1323,1028,-0.23622721433639526,-0.8298225998878479,-999.969482421875,0.07132043689489365,0.03511560708284378,0.06442861258983612
1332,1028,-0.23622721433639526,-0.8298225998878479,-999.969482421875,0.07132043689489365,0.03511560708284378,0.06442861258983612
1337,1028,-0.23622721433639526,-0.8298225998878479,-999.969482421875,0.07132043689489365,0.03511560708284378,0.06442861258983612
1283,1028,-0.23622721433639526,-0.8298225998878479,-999.969482421875,0.07132043689489365,0.03511560708284378,0.06442861258983612
1254,1028,-0.23622721433639526,-0.8298225998878479,-999.969482421875,0.07132043689489365,0.03511560708284378,0.06442861258983612
1263,1028,-0.23622721433639526,-0.8298225998878479,-999.969482421875,0.07132043689489365,0.03511560708284378,0.06442861258983612
1268,1028,-0.23622721433639526,-0.8298225998878479,-999.969482421875,0.07132043689489365,0.03511560708284378,0.06442861258983612
1333,1029,-0.24122199416160583,-0.22810247540473938,-1000.00244140625,0.12803415954113007,-0.047681309282779694,0.07517850399017334
1353,1029,-0.24122199416160583,-0.22810247540473938,-1000.00244140625,0.12803415954113007,-0.047681309282779694,0.07517850399017334
1336,1029,-0.24122199416160583,-0.22810247540473938,-1000.00244140625,0.12803415954113007,-0.047681309282779694,0.07517850399017334
1326,1029,-0.24122199416160583,-0.22810247540473938,-1000.00244140625,0.12803415954113007,-0.047681309282779694,0.07517850399017334
1264,1029,-0.24122199416160583,-0.22810247540473938,-1000.00244140625,0.12803415954113007,-0.047681309282779694,0.07517850399017334
1284,1029,-0.24122199416160583,-0.22810247540473938,-1000.00244140625,0.12803415954113007,-0.047681309282779694,0.07517850399017334
1267,1029,-0.24122199416160583,-0.22810247540473938,-1000.00244140625,0.12803415954113007,-0.047681309282779694,0.07517850399017334
1257,1029,-0.24122199416160583,-0.22810247540473938,-1000.00244140625,0.12803415954113007,-0.047681309282779694,0.07517850399017334
1324,1030,-0.2502540349960327,-0.9195632338523865,-1000.0349731445312,0.11998973786830902,-0.014221306890249252,0.040586356073617935
1335,1030,-0.2502540349960327,-0.9195632338523865,-1000.0349731445312,0.11998973786830902,-0.014221306890249252,0.040586356073617935
1334,1030,-0.2502540349960327,-0.9195632338523865,-1000.0349731445312,0.11998973786830902,-0.014221306890249252,0.040586356073617935
1325,1030,-0.2502540349960327,-0.9195632338523865,-1000.0349731445312,0.11998973786830902,-0.014221306890249252,0.040586356073617935
1255,1030,-0.2502540349960327,-0.9195632338523865,-1000.0349731445312,0.11998973786830902,-0.014221306890249252,0.040586356073617935
1266,1030,-0.2502540349960327,-0.9195632338523865,-1000.0349731445312,0.11998973786830902,-0.014221306890249252,0.040586356073617935
1265,1030,-0.2502540349960327,-0.9195632338523865,-1000.0349731445312,0.11998973786830902,-0.014221306890249252,0.040586356073617935
1256,1030,-0.2502540349960327,-0.9195632338523865,-1000.0349731445312,0.11998973786830902,-0.014221306890249252,0.040586356073617935
1363,1031,-0.3720680773258209,-0.30390962958335876,-1000.01611328125,-0.26106739044189453,0.1650228202342987,0.30838799476623535
1376,1031,-0.3720680773258209,-0.30390962958335876,-1000.01611328125,-0.26106739044189453,0.1650228202342987,0.30838799476623535
1355,1031,-0.3720680773258209,-0.30390962958335876,-1000.01611328125,-0.26106739044189453,0.1650228202342987,0.30838799476623535
1366,1031,-0.3720680773258209,-0.30390962958335876,-1000.01611328125,-0.26106739044189453,0.1650228202342987,0.30838799476623535
1294,1031,-0.3720680773258209,-0.30390962958335876,-1000.01611328125,-0.26106739044189453,0.1650228202342987,0.30838799476623535
1307,1031,-0.3720680773258209,-0.30390962958335876,-1000.01611328125,-0.26106739044189453,0.1650228202342987,0.30838799476623535
1286,1031,-0.3720680773258209,-0.30390962958335876,-1000.01611328125,-0.26106739044189453,0.1650228202342987,0.30838799476623535
1297,1031,-0.3720680773258209,-0.30390962958335876,-1000.01611328125,-0.26106739044189453,0.1650228202342987,0.30838799476623535
1379,1032,1.0309957265853882,1.2489460706710815,-999.75,-0.04893379285931587,0.004186072386801243,-0.009382043965160847
1357,1032,1.0309957265853882,1.2489460706710815,-999.75,-0.04893379285931587,0.004186072386801243,-0.009382043965160847
1343,1032,1.0309957265853882,1.2489460706710815,-999.75,-0.04893379285931587,0.004186072386801243,-0.009382043965160847
1344,1032,1.0309957265853882,1.2489460706710815,-999.75,-0.04893379285931587,0.004186072386801243,-0.009382043965160847
1310,1032,1.0309957265853882,1.2489460706710815,-999.75,-0.04893379285931587,0.004186072386801243,-0.009382043965160847
1288,1032,1.0309957265853882,1.2489460706710815,-999.75,-0.04893379285931587,0.004186072386801243,-0.009382043965160847
1274,1032,1.0309957265853882,1.2489460706710815,-999.75,-0.04893379285931587,0.004186072386801243,-0.009382043965160847
1275,1032,1.0309957265853882,1.2489460706710815,-999.75,-0.04893379285931587,0.004186072386801243,-0.009382043965160847
1367,1033,0.563957691192627,0.7493807077407837,-999.8831787109375,-0.22528819739818573,-0.28758350014686584,-0.1464771032333374
1364,1033,0.563957691192627,0.7493807077407837,-999.8831787109375,-0.22528819739818573,-0.28758350014686584,-0.1464771032333374
1363,1033,0.563957691192627,0.7493807077407837,-999.8831787109375,-0.22528819739818573,-0.28758350014686584,-0.1464771032333374
1366,1033,0.563957691192627,0.7493807077407837,-999.8831787109375,-0.22528819739818573,-0.28758350014686584,-0.1464771032333374
1298,1033,0.563957691192627,0.7493807077407837,-999.8831787109375,-0.22528819739818573,-0.28758350014686584,-0.1464771032333374
1295,1033,0.563957691192627,0.7493807077407837,-999.8831787109375,-0.22528819739818573,-0.28758350014686584,-0.1464771032333374
1294,1033,0.563957691192627,0.7493807077407837,-999.8831787109375,-0.22528819739818573,-0.28758350014686584,-0.1464771032333374
1297,1033,0.563957691192627,0.7493807077407837,-999.8831787109375,-0.22528819739818573,-0.28758350014686584,-0.1464771032333374
1358,1034,-0.747581422328949,-1.3476107120513916,-1000.162841796875,-0.13468164205551147,0.22603768110275269,0.04401430860161781
1375,1034,-0.747581422328949,-1.3476107120513916,-1000.162841796875,-0.13468164205551147,0.22603768110275269,0.04401430860161781
1363,1034,-0.747581422328949,-1.3476107120513916,-1000.162841796875,-0.13468164205551147,0.22603768110275269,0.04401430860161781
1364,1034,-0.747581422328949,-1.3476107120513916,-1000.162841796875,-0.13468164205551147,0.22603768110275269,0.04401430860161781
1289,1034,-0.747581422328949,-1.3476107120513916,-1000.162841796875,-0.13468164205551147,0.22603768110275269,0.04401430860161781
1306,1034,-0.747581422328949,-1.3476107120513916,-1000.162841796875,-0.13468164205551147,0.22603768110275269,0.04401430860161781
1294,1034,-0.747581422328949,-1.3476107120513916,-1000.162841796875,-0.13468164205551147,0.22603768110275269,0.04401430860161781
1295,1034,-0.747581422328949,-1.3476107120513916,-1000.162841796875,-0.13468164205551147,0.22603768110275269,0.04401430860161781
1338,1035,0.4743771255016327,0.4122888743877411,-1000.0922241210938,0.257372111082077,0.25708675384521484,-0.2660777270793915
1351,1035,0.4743771255016327,0.4122888743877411,-1000.0922241210938,0.257372111082077,0.25708675384521484,-0.2660777270793915
1376,1035,0.4743771255016327,0.4122888743877411,-1000.0922241210938,0.257372111082077,0.25708675384521484,-0.2660777270793915
1363,1035,0.4743771255016327,0.4122888743877411,-1000.0922241210938,0.257372111082077,0.25708675384521484,-0.2660777270793915
1269,1035,0.4743771255016327,0.4122888743877411,-1000.0922241210938,0.257372111082077,0.25708675384521484,-0.2660777270793915
1282,1035,0.4743771255016327,0.4122888743877411,-1000.0922241210938,0.257372111082077,0.25708675384521484,-0.2660777270793915
1307,1035,0.4743771255016327,0.4122888743877411,-1000.0922241210938,0.257372111082077,0.25708675384521484,-0.2660777270793915
1294,1035,0.4743771255016327,0.4122888743877411,-1000.0922241210938,0.257372111082077,0.25708675384521484,-0.2660777270793915
1378,1036,1.784853219985962,0.7642281651496887,-999.6751098632812,0.3915404677391052,-0.027520209550857544,0.15943211317062378
1362,1036,1.784853219985962,0.7642281651496887,-999.6751098632812,0.3915404677391052,-0.027520209550857544,0.15943211317062378
1342,1036,1.784853219985962,0.7642281651496887,-999.6751098632812,0.3915404677391052,-0.027520209550857544,0.15943211317062378
1350,1036,1.784853219985962,0.7642281651496887,-999.6751098632812,0.3915404677391052,-0.027520209550857544,0.15943211317062378
1309,1036,1.784853219985962,0.7642281651496887,-999.6751098632812,0.3915404677391052,-0.027520209550857544,0.15943211317062378
1293,1036,1.784853219985962,0.7642281651496887,-999.6751098632812,0.3915404677391052,-0.027520209550857544,0.15943211317062378
1273,1036,1.784853219985962,0.7642281651496887,-999.6751098632812,0.3915404677391052,-0.027520209550857544,0.15943211317062378
1281,1036,1.784853219985962,0.7642281651496887,-999.6751098632812,0.3915404677391052,-0.027520209550857544,0.15943211317062378
1372,1037,-0.5370097160339355,-0.7974966764450073,-1000.3233032226562,-0.21058718860149384,-0.6614190936088562,0.44306454062461853
1367,1037,-0.5370097160339355,-0.7974966764450073,-1000.3233032226562,-0.21058718860149384,-0.6614190936088562,0.44306454062461853
1346,1037,-0.5370097160339355,-0.7974966764450073,-1000.3233032226562,-0.21058718860149384,-0.6614190936088562,0.44306454062461853
1360,1037,-0.5370097160339355,-0.7974966764450073,-1000.3233032226562,-0.21058718860149384,-0.6614190936088562,0.44306454062461853
1303,1037,-0.5370097160339355,-0.7974966764450073,-1000.3233032226562,-0.21058718860149384,-0.6614190936088562,0.44306454062461853
1298,1037,-0.5370097160339355,-0.7974966764450073,-1000.3233032226562,-0.21058718860149384,-0.6614190936088562,0.44306454062461853
1277,1037,-0.5370097160339355,-0.7974966764450073,-1000.3233032226562,-0.21058718860149384,-0.6614190936088562,0.44306454062461853
1291,1037,-0.5370097160339355,-0.7974966764450073,-1000.3233032226562,-0.21058718860149384,-0.6614190936088562,0.44306454062461853
1346,1038,0.6740424036979675,0.31344133615493774,-1000.0692749023438,0.4979690909385681,-0.03353486582636833,-0.12366782873868942
1361,1038,0.6740424036979675,0.31344133615493774,-1000.0692749023438,0.4979690909385681,-0.03353486582636833,-0.12366782873868942
1369,1038,0.6740424036979675,0.31344133615493774,-1000.0692749023438,0.4979690909385681,-0.03353486582636833,-0.12366782873868942
1370,1038,0.6740424036979675,0.31344133615493774,-1000.0692749023438,0.4979690909385681,-0.03353486582636833,-0.12366782873868942
1277,1038,0.6740424036979675,0.31344133615493774,-1000.0692749023438,0.4979690909385681,-0.03353486582636833,-0.12366782873868942
1292,1038,0.6740424036979675,0.31344133615493774,-1000.0692749023438,0.4979690909385681,-0.03353486582636833,-0.12366782873868942
1300,1038,0.6740424036979675,0.31344133615493774,-1000.0692749023438,0.4979690909385681,-0.03353486582636833,-0.12366782873868942
1301,1038,0.6740424036979675,0.31344133615493774,-1000.0692749023438,0.4979690909385681,-0.03353486582636833,-0.12366782873868942
1353,1039,0.09471451491117477,0.013503213413059711,-1000.687255859375,-0.6544271111488342,0.020068738609552383,-0.19384616613388062
1334,1039,0.09471451491117477,0.013503213413059711,-1000.687255859375,-0.6544271111488342,0.020068738609552383,-0.19384616613388062
1373,1039,0.09471451491117477,0.013503213413059711,-1000.687255859375,-0.6544271111488342,0.020068738609552383,-0.19384616613388062
1356,1039,0.09471451491117477,0.013503213413059711,-1000.687255859375,-0.6544271111488342,0.020068738609552383,-0.19384616613388062
1284,1039,0.09471451491117477,0.013503213413059711,-1000.687255859375,-0.6544271111488342,0.020068738609552383,-0.19384616613388062
1265,1039,0.09471451491117477,0.013503213413059711,-1000.687255859375,-0.6544271111488342,0.020068738609552383,-0.19384616613388062
1304,1039,0.09471451491117477,0.013503213413059711,-1000.687255859375,-0.6544271111488342,0.020068738609552383,-0.19384616613388062
1287,1039,0.09471451491117477,0.013503213413059711,-1000.687255859375,-0.6544271111488342,0.020068738609552383,-0.19384616613388062
1380,1040,0.7829601168632507,1.1047557592391968,-999.3782348632812,-0.1614454686641693,0.15354163944721222,0.2221345156431198
1336,1040,0.7829601168632507,1.1047557592391968,-999.3782348632812,-0.1614454686641693,0.15354163944721222,0.2221345156431198
1353,1040,0.7829601168632507,1.1047557592391968,-999.3782348632812,-0.1614454686641693,0.15354163944721222,0.2221345156431198
1356,1040,0.7829601168632507,1.1047557592391968,-999.3782348632812,-0.1614454686641693,0.15354163944721222,0.2221345156431198
1311,1040,0.7829601168632507,1.1047557592391968,-999.3782348632812,-0.1614454686641693,0.15354163944721222,0.2221345156431198
1267,1040,0.7829601168632507,1.1047557592391968,-999.3782348632812,-0.1614454686641693,0.15354163944721222,0.2221345156431198
1284,1040,0.7829601168632507,1.1047557592391968,-999.3782348632812,-0.1614454686641693,0.15354163944721222,0.2221345156431198
1287,1040,0.7829601168632507,1.1047557592391968,-999.3782348632812,-0.1614454686641693,0.15354163944721222,0.2221345156431198
1340,1041,0.9094564914703369,0.4798080027103424,-999.796142578125,0.1494310200214386,0.2120211124420166,-0.2777538001537323
1341,1041,0.9094564914703369,0.4798080027103424,-999.796142578125,0.1494310200214386,0.2120211124420166,-0.2777538001537323
1377,1041,0.9094564914703369,0.4798080027103424,-999.796142578125,0.1494310200214386,0.2120211124420166,-0.2777538001537323
1355,1041,0.9094564914703369,0.4798080027103424,-999.796142578125,0.1494310200214386,0.2120211124420166,-0.2777538001537323
1271,1041,0.9094564914703369,0.4798080027103424,-999.796142578125,0.1494310200214386,0.2120211124420166,-0.2777538001537323
1272,1041,0.9094564914703369,0.4798080027103424,-999.796142578125,0.1494310200214386,0.2120211124420166,-0.2777538001537323
1308,1041,0.9094564914703369,0.4798080027103424,-999.796142578125,0.1494310200214386,0.2120211124420166,-0.2777538001537323
1286,1041,0.9094564914703369,0.4798080027103424,-999.796142578125,0.1494310200214386,0.2120211124420166,-0.2777538001537323
1325,1042,-0.3069418966770172,-0.7271296977996826,-1000.0005493164062,0.3923455476760864,-0.008271233178675175,-0.06774414330720901
1334,1042,-0.3069418966770172,-0.7271296977996826,-1000.0005493164062,0.3923455476760864,-0.008271233178675175,-0.06774414330720901
1353,1042,-0.3069418966770172,-0.7271296977996826,-1000.0005493164062,0.3923455476760864,-0.008271233178675175,-0.06774414330720901
1333,1042,-0.3069418966770172,-0.7271296977996826,-1000.0005493164062,0.3923455476760864,-0.008271233178675175,-0.06774414330720901
1256,1042,-0.3069418966770172,-0.7271296977996826,-1000.0005493164062,0.3923455476760864,-0.008271233178675175,-0.06774414330720901
1265,1042,-0.3069418966770172,-0.7271296977996826,-1000.0005493164062,0.3923455476760864,-0.008271233178675175,-0.06774414330720901
1284,1042,-0.3069418966770172,-0.7271296977996826,-1000.0005493164062,0.3923455476760864,-0.008271233178675175,-0.06774414330720901
1264,1042,-0.3069418966770172,-0.7271296977996826,-1000.0005493164062,0.3923455476760864,-0.008271233178675175,-0.06774414330720901
1322,1043,-0.34039467573165894,-1.310198187828064,-1000.0576171875,-0.0161894503980875,-0.007190501317381859,0.012743367813527584
1368,1043,-0.34039467573165894,-1.310198187828064,-1000.0576171875,-0.0161894503980875,-0.007190501317381859,0.012743367813527584
1337,1043,-0.34039467573165894,-1.310198187828064,-1000.0576171875,-0.0161894503980875,-0.007190501317381859,0.012743367813527584
1332,1043,-0.34039467573165894,-1.310198187828064,-1000.0576171875,-0.0161894503980875,-0.007190501317381859,0.012743367813527584
1253,1043,-0.34039467573165894,-1.310198187828064,-1000.0576171875,-0.0161894503980875,-0.007190501317381859,0.012743367813527584
1299,1043,-0.34039467573165894,-1.310198187828064,-1000.0576171875,-0.0161894503980875,-0.007190501317381859,0.012743367813527584
1268,1043,-0.34039467573165894,-1.310198187828064,-1000.0576171875,-0.0161894503980875,-0.007190501317381859,0.012743367813527584
1263,1043,-0.34039467573165894,-1.310198187828064,-1000.0576171875,-0.0161894503980875,-0.007190501317381859,0.012743367813527584
1338,1044,-0.4979071617126465,-0.10325615853071213,-1000.0045776367188,-0.1596638262271881,-0.04456240311264992,0.0759146511554718
1321,1044,-0.4979071617126465,-0.10325615853071213,-1000.0045776367188,-0.1596638262271881,-0.04456240311264992,0.0759146511554718
1331,1044,-0.4979071617126465,-0.10325615853071213,-1000.0045776367188,-0.1596638262271881,-0.04456240311264992,0.0759146511554718
1351,1044,-0.4979071617126465,-0.10325615853071213,-1000.0045776367188,-0.1596638262271881,-0.04456240311264992,0.0759146511554718
1269,1044,-0.4979071617126465,-0.10325615853071213,-1000.0045776367188,-0.1596638262271881,-0.04456240311264992,0.0759146511554718
1252,1044,-0.4979071617126465,-0.10325615853071213,-1000.0045776367188,-0.1596638262271881,-0.04456240311264992,0.0759146511554718
1262,1044,-0.4979071617126465,-0.10325615853071213,-1000.0045776367188,-0.1596638262271881,-0.04456240311264992,0.0759146511554718
1282,1044,-0.4979071617126465,-0.10325615853071213,-1000.0045776367188,-0.1596638262271881,-0.04456240311264992,0.0759146511554718
1339,1045,-0.5937597155570984,-0.09431824088096619,-999.962890625,0.009461921639740467,-0.06214354187250137,-0.04090643301606178
1327,1045,-0.5937597155570984,-0.09431824088096619,-999.962890625,0.009461921639740467,-0.06214354187250137,-0.04090643301606178
1326,1045,-0.5937597155570984,-0.09431824088096619,-999.962890625,0.009461921639740467,-0.06214354187250137,-0.04090643301606178
1336,1045,-0.5937597155570984,-0.09431824088096619,-999.962890625,0.009461921639740467,-0.06214354187250137,-0.04090643301606178
1270,1045,-0.5937597155570984,-0.09431824088096619,-999.962890625,0.009461921639740467,-0.06214354187250137,-0.04090643301606178
1258,1045,-0.5937597155570984,-0.09431824088096619,-999.962890625,0.009461921639740467,-0.06214354187250137,-0.04090643301606178
1257,1045,-0.5937597155570984,-0.09431824088096619,-999.962890625,0.009461921639740467,-0.06214354187250137,-0.04090643301606178
1267,1045,-0.5937597155570984,-0.09431824088096619,-999.962890625,0.009461921639740467,-0.06214354187250137,-0.04090643301606178
1351,1046,-0.365976482629776,0.07190128415822983,-999.9658203125,0.05537671223282814,0.06786540895700455,-0.047435954213142395
1331,1046,-0.365976482629776,0.07190128415822983,-999.9658203125,0.05537671223282814,0.06786540895700455,-0.047435954213142395
1320,1046,-0.365976482629776,0.07190128415822983,-999.9658203125,0.05537671223282814,0.06786540895700455,-0.047435954213142395
1340,1046,-0.365976482629776,0.07190128415822983,-999.9658203125,0.05537671223282814,0.06786540895700455,-0.047435954213142395
1282,1046,-0.365976482629776,0.07190128415822983,-999.9658203125,0.05537671223282814,0.06786540895700455,-0.047435954213142395
1262,1046,-0.365976482629776,0.07190128415822983,-999.9658203125,0.05537671223282814,0.06786540895700455,-0.047435954213142395
1251,1046,-0.365976482629776,0.07190128415822983,-999.9658203125,0.05537671223282814,0.06786540895700455,-0.047435954213142395
1271,1046,-0.365976482629776,0.07190128415822983,-999.9658203125,0.05537671223282814,0.06786540895700455,-0.047435954213142395
1375,1047,0.28512999415397644,0.5532844662666321,-999.850830078125,0.5011728405952454,-0.19754600524902344,0.10438944399356842
1368,1047,0.28512999415397644,0.5532844662666321,-999.850830078125,0.5011728405952454,-0.19754600524902344,0.10438944399356842
1338,1047,0.28512999415397644,0.5532844662666321,-999.850830078125,0.5011728405952454,-0.19754600524902344,0.10438944399356842
1363,1047,0.28512999415397644,0.5532844662666321,-999.850830078125,0.5011728405952454,-0.19754600524902344,0.10438944399356842
1306,1047,0.28512999415397644,0.5532844662666321,-999.850830078125,0.5011728405952454,-0.19754600524902344,0.10438944399356842
1299,1047,0.28512999415397644,0.5532844662666321,-999.850830078125,0.5011728405952454,-0.19754600524902344,0.10438944399356842
1269,1047,0.28512999415397644,0.5532844662666321,-999.850830078125,0.5011728405952454,-0.19754600524902344,0.10438944399356842
1294,1047,0.28512999415397644,0.5532844662666321,-999.850830078125,0.5011728405952454,-0.19754600524902344,0.10438944399356842
1340,1048,-0.30068954825401306,-0.007261262740939856,-1000.0274047851562,0.12195520848035812,-0.004663425497710705,0.0971645712852478
1320,1048,-0.30068954825401306,-0.007261262740939856,-1000.0274047851562,0.12195520848035812,-0.004663425497710705,0.0971645712852478
1319,1048,-0.30068954825401306,-0.007261262740939856,-1000.0274047851562,0.12195520848035812,-0.004663425497710705,0.0971645712852478
1341,1048,-0.30068954825401306,-0.007261262740939856,-1000.0274047851562,0.12195520848035812,-0.004663425497710705,0.0971645712852478
1271,1048,-0.30068954825401306,-0.007261262740939856,-1000.0274047851562,0.12195520848035812,-0.004663425497710705,0.0971645712852478
1251,1048,-0.30068954825401306,-0.007261262740939856,-1000.0274047851562,0.12195520848035812,-0.004663425497710705,0.0971645712852478
1250,1048,-0.30068954825401306,-0.007261262740939856,-1000.0274047851562,0.12195520848035812,-0.004663425497710705,0.0971645712852478
1272,1048,-0.30068954825401306,-0.007261262740939856,-1000.0274047851562,0.12195520848035812,-0.004663425497710705,0.0971645712852478
1341,1049,-0.5737977623939514,-0.11510869115591049,-999.94873046875,-0.0513048991560936,0.015715591609477997,-0.09041761606931686
1319,1049,-0.5737977623939514,-0.11510869115591049,-999.94873046875,-0.0513048991560936,0.015715591609477997,-0.09041761606931686
1318,1049,-0.5737977623939514,-0.11510869115591049,-999.94873046875,-0.0513048991560936,0.015715591609477997,-0.09041761606931686
1342,1049,-0.5737977623939514,-0.11510869115591049,-999.94873046875,-0.0513048991560936,0.015715591609477997,-0.09041761606931686
1272,1049,-0.5737977623939514,-0.11510869115591049,-999.94873046875,-0.0513048991560936,0.015715591609477997,-0.09041761606931686
1250,1049,-0.5737977623939514,-0.11510869115591049,-999.94873046875,-0.0513048991560936,0.015715591609477997,-0.09041761606931686
1249,1049,-0.5737977623939514,-0.11510869115591049,-999.94873046875,-0.0513048991560936,0.015715591609477997,-0.09041761606931686
1273,1049,-0.5737977623939514,-0.11510869115591049,-999.94873046875,-0.0513048991560936,0.015715591609477997,-0.09041761606931686
1372,1050,0.31261375546455383,-0.6626065969467163,-999.7342529296875,-0.23068176209926605,0.025074172765016556,-0.5881619453430176
1360,1050,0.31261375546455383,-0.6626065969467163,-999.7342529296875,-0.23068176209926605,0.025074172765016556,-0.5881619453430176
1371,1050,0.31261375546455383,-0.6626065969467163,-999.7342529296875,-0.23068176209926605,0.025074172765016556,-0.5881619453430176
1365,1050,0.31261375546455383,-0.6626065969467163,-999.7342529296875,-0.23068176209926605,0.025074172765016556,-0.5881619453430176
1303,1050,0.31261375546455383,-0.6626065969467163,-999.7342529296875,-0.23068176209926605,0.025074172765016556,-0.5881619453430176
1291,1050,0.31261375546455383,-0.6626065969467163,-999.7342529296875,-0.23068176209926605,0.025074172765016556,-0.5881619453430176
1302,1050,0.31261375546455383,-0.6626065969467163,-999.7342529296875,-0.23068176209926605,0.025074172765016556,-0.5881619453430176
1296,1050,0.31261375546455383,-0.6626065969467163,-999.7342529296875,-0.23068176209926605,0.025074172765016556,-0.5881619453430176
1327,1051,-0.6302081346511841,-0.2981393337249756,-1000.0217895507812,-0.26218247413635254,-0.04222483932971954,0.08024629950523376
1339,1051,-0.6302081346511841,-0.2981393337249756,-1000.0217895507812,-0.26218247413635254,-0.04222483932971954,0.08024629950523376
1347,1051,-0.6302081346511841,-0.2981393337249756,-1000.0217895507812,-0.26218247413635254,-0.04222483932971954,0.08024629950523376
1312,1051,-0.6302081346511841,-0.2981393337249756,-1000.0217895507812,-0.26218247413635254,-0.04222483932971954,0.08024629950523376
1258,1051,-0.6302081346511841,-0.2981393337249756,-1000.0217895507812,-0.26218247413635254,-0.04222483932971954,0.08024629950523376
1270,1051,-0.6302081346511841,-0.2981393337249756,-1000.0217895507812,-0.26218247413635254,-0.04222483932971954,0.08024629950523376
1278,1051,-0.6302081346511841,-0.2981393337249756,-1000.0217895507812,-0.26218247413635254,-0.04222483932971954,0.08024629950523376
1243,1051,-0.6302081346511841,-0.2981393337249756,-1000.0217895507812,-0.26218247413635254,-0.04222483932971954,0.08024629950523376
1342,1052,-0.6472740769386292,-0.012162324972450733,-1000.0425415039062,-0.05351690948009491,0.05557151883840561,0.03453224152326584
1318,1052,-0.6472740769386292,-0.012162324972450733,-1000.0425415039062,-0.05351690948009491,0.05557151883840561,0.03453224152326584
1330,1052,-0.6472740769386292,-0.012162324972450733,-1000.0425415039062,-0.05351690948009491,0.05557151883840561,0.03453224152326584
1350,1052,-0.6472740769386292,-0.012162324972450733,-1000.0425415039062,-0.05351690948009491,0.05557151883840561,0.03453224152326584
1273,1052,-0.6472740769386292,-0.012162324972450733,-1000.0425415039062,-0.05351690948009491,0.05557151883840561,0.03453224152326584
1249,1052,-0.6472740769386292,-0.012162324972450733,-1000.0425415039062,-0.05351690948009491,0.05557151883840561,0.03453224152326584
1261,1052,-0.6472740769386292,-0.012162324972450733,-1000.0425415039062,-0.05351690948009491,0.05557151883840561,0.03453224152326584
1281,1052,-0.6472740769386292,-0.012162324972450733,-1000.0425415039062,-0.05351690948009491,0.05557151883840561,0.03453224152326584
1350,1053,-0.608295202255249,-0.13873794674873352,-999.9320068359375,0.25200793147087097,-0.01601860113441944,-0.08259408921003342
1330,1053,-0.608295202255249,-0.13873794674873352,-999.9320068359375,0.25200793147087097,-0.01601860113441944,-0.08259408921003342
1317,1053,-0.608295202255249,-0.13873794674873352,-999.9320068359375,0.25200793147087097,-0.01601860113441944,-0.08259408921003342
1343,1053,-0.608295202255249,-0.13873794674873352,-999.9320068359375,0.25200793147087097,-0.01601860113441944,-0.08259408921003342
1281,1053,-0.608295202255249,-0.13873794674873352,-999.9320068359375,0.25200793147087097,-0.01601860113441944,-0.08259408921003342
1261,1053,-0.608295202255249,-0.13873794674873352,-999.9320068359375,0.25200793147087097,-0.01601860113441944,-0.08259408921003342
1248,1053,-0.608295202255249,-0.13873794674873352,-999.9320068359375,0.25200793147087097,-0.01601860113441944,-0.08259408921003342
1274,1053,-0.608295202255249,-0.13873794674873352,-999.9320068359375,0.25200793147087097,-0.01601860113441944,-0.08259408921003342
1343,1054,-0.4367031455039978,-0.6489023566246033,-1000.0654907226562,0.26407590508461,0.034806281328201294,0.06488722562789917
1317,1054,-0.4367031455039978,-0.6489023566246033,-1000.0654907226562,0.26407590508461,0.034806281328201294,0.06488722562789917
1316,1054,-0.4367031455039978,-0.6489023566246033,-1000.0654907226562,0.26407590508461,0.034806281328201294,0.06488722562789917
1344,1054,-0.4367031455039978,-0.6489023566246033,-1000.0654907226562,0.26407590508461,0.034806281328201294,0.06488722562789917
1274,1054,-0.4367031455039978,-0.6489023566246033,-1000.0654907226562,0.26407590508461,0.034806281328201294,0.06488722562789917
1248,1054,-0.4367031455039978,-0.6489023566246033,-1000.0654907226562,0.26407590508461,0.034806281328201294,0.06488722562789917
1247,1054,-0.4367031455039978,-0.6489023566246033,-1000.0654907226562,0.26407590508461,0.034806281328201294,0.06488722562789917
1275,1054,-0.4367031455039978,-0.6489023566246033,-1000.0654907226562,0.26407590508461,0.034806281328201294,0.06488722562789917
1344,1055,-0.1016046404838562,-0.585721492767334,-999.9319458007812,0.04826460778713226,0.014065387658774853,-0.08763939142227173
1316,1055,-0.1016046404838562,-0.585721492767334,-999.9319458007812,0.04826460778713226,0.014065387658774853,-0.08763939142227173
1329,1055,-0.1016046404838562,-0.585721492767334,-999.9319458007812,0.04826460778713226,0.014065387658774853,-0.08763939142227173
1349,1055,-0.1016046404838562,-0.585721492767334,-999.9319458007812,0.04826460778713226,0.014065387658774853,-0.08763939142227173
1275,1055,-0.1016046404838562,-0.585721492767334,-999.9319458007812,0.04826460778713226,0.014065387658774853,-0.08763939142227173
1247,1055,-0.1016046404838562,-0.585721492767334,-999.9319458007812,0.04826460778713226,0.014065387658774853,-0.08763939142227173
1260,1055,-0.1016046404838562,-0.585721492767334,-999.9319458007812,0.04826460778713226,0.014065387658774853,-0.08763939142227173
1280,1055,-0.1016046404838562,-0.585721492767334,-999.9319458007812,0.04826460778713226,0.014065387658774853,-0.08763939142227173
1349,1056,-0.17917613685131073,-0.5247694849967957,-1000.047119140625,-0.04213744029402733,0.032127708196640015,-0.06664878875017166
1329,1056,-0.17917613685131073,-0.5247694849967957,-1000.047119140625,-0.04213744029402733,0.032127708196640015,-0.06664878875017166
1315,1056,-0.17917613685131073,-0.5247694849967957,-1000.047119140625,-0.04213744029402733,0.032127708196640015,-0.06664878875017166
1345,1056,-0.17917613685131073,-0.5247694849967957,-1000.047119140625,-0.04213744029402733,0.032127708196640015,-0.06664878875017166
1280,1056,-0.17917613685131073,-0.5247694849967957,-1000.047119140625,-0.04213744029402733,0.032127708196640015,-0.06664878875017166
1260,1056,-0.17917613685131073,-0.5247694849967957,-1000.047119140625,-0.04213744029402733,0.032127708196640015,-0.06664878875017166
1246,1056,-0.17917613685131073,-0.5247694849967957,-1000.047119140625,-0.04213744029402733,0.032127708196640015,-0.06664878875017166
1276,1056,-0.17917613685131073,-0.5247694849967957,-1000.047119140625,-0.04213744029402733,0.032127708196640015,-0.06664878875017166
1369,1057,-0.8498384952545166,-0.922541618347168,-1000.0527954101562,-0.37268322706222534,0.05934535712003708,-0.06284885853528976
1314,1057,-0.8498384952545166,-0.922541618347168,-1000.0527954101562,-0.37268322706222534,0.05934535712003708,-0.06284885853528976
1313,1057,-0.8498384952545166,-0.922541618347168,-1000.0527954101562,-0.37268322706222534,0.05934535712003708,-0.06284885853528976
1370,1057,-0.8498384952545166,-0.922541618347168,-1000.0527954101562,-0.37268322706222534,0.05934535712003708,-0.06284885853528976
1300,1057,-0.8498384952545166,-0.922541618347168,-1000.0527954101562,-0.37268322706222534,0.05934535712003708,-0.06284885853528976
1245,1057,-0.8498384952545166,-0.922541618347168,-1000.0527954101562,-0.37268322706222534,0.05934535712003708,-0.06284885853528976
1244,1057,-0.8498384952545166,-0.922541618347168,-1000.0527954101562,-0.37268322706222534,0.05934535712003708,-0.06284885853528976
1301,1057,-0.8498384952545166,-0.922541618347168,-1000.0527954101562,-0.37268322706222534,0.05934535712003708,-0.06284885853528976
1348,1058,-0.10338077694177628,-0.24995878338813782,-999.970947265625,-0.15668801963329315,-0.04027748480439186,-0.08621233701705933
1328,1058,-0.10338077694177628,-0.24995878338813782,-999.970947265625,-0.15668801963329315,-0.04027748480439186,-0.08621233701705933
1312,1058,-0.10338077694177628,-0.24995878338813782,-999.970947265625,-0.15668801963329315,-0.04027748480439186,-0.08621233701705933
1347,1058,-0.10338077694177628,-0.24995878338813782,-999.970947265625,-0.15668801963329315,-0.04027748480439186,-0.08621233701705933
1279,1058,-0.10338077694177628,-0.24995878338813782,-999.970947265625,-0.15668801963329315,-0.04027748480439186,-0.08621233701705933
1259,1058,-0.10338077694177628,-0.24995878338813782,-999.970947265625,-0.15668801963329315,-0.04027748480439186,-0.08621233701705933
1243,1058,-0.10338077694177628,-0.24995878338813782,-999.970947265625,-0.15668801963329315,-0.04027748480439186,-0.08621233701705933
1278,1058,-0.10338077694177628,-0.24995878338813782,-999.970947265625,-0.15668801963329315,-0.04027748480439186,-0.08621233701705933
1371,1059,1.500969648361206,1.6104490756988525,-999.3360595703125,0.3053487241268158,0.02592187002301216,0.24834030866622925
1347,1059,1.500969648361206,1.6104490756988525,-999.3360595703125,0.3053487241268158,0.02592187002301216,0.24834030866622925
1339,1059,1.500969648361206,1.6104490756988525,-999.3360595703125,0.3053487241268158,0.02592187002301216,0.24834030866622925
1354,1059,1.500969648361206,1.6104490756988525,-999.3360595703125,0.3053487241268158,0.02592187002301216,0.24834030866622925
1302,1059,1.500969648361206,1.6104490756988525,-999.3360595703125,0.3053487241268158,0.02592187002301216,0.24834030866622925
1278,1059,1.500969648361206,1.6104490756988525,-999.3360595703125,0.3053487241268158,0.02592187002301216,0.24834030866622925
1270,1059,1.500969648361206,1.6104490756988525,-999.3360595703125,0.3053487241268158,0.02592187002301216,0.24834030866622925
1285,1059,1.500969648361206,1.6104490756988525,-999.3360595703125,0.3053487241268158,0.02592187002301216,0.24834030866622925
1370,1060,0.713026225566864,1.4696314334869385,-999.6571044921875,0.17911860346794128,0.09533187747001648,0.13929544389247894
1348,1060,0.713026225566864,1.4696314334869385,-999.6571044921875,0.17911860346794128,0.09533187747001648,0.13929544389247894
1360,1060,0.713026225566864,1.4696314334869385,-999.6571044921875,0.17911860346794128,0.09533187747001648,0.13929544389247894
1346,1060,0.713026225566864,1.4696314334869385,-999.6571044921875,0.17911860346794128,0.09533187747001648,0.13929544389247894
1301,1060,0.713026225566864,1.4696314334869385,-999.6571044921875,0.17911860346794128,0.09533187747001648,0.13929544389247894
1279,1060,0.713026225566864,1.4696314334869385,-999.6571044921875,0.17911860346794128,0.09533187747001648,0.13929544389247894
1291,1060,0.713026225566864,1.4696314334869385,-999.6571044921875,0.17911860346794128,0.09533187747001648,0.13929544389247894
1277,1060,0.713026225566864,1.4696314334869385,-999.6571044921875,0.17911860346794128,0.09533187747001648,0.13929544389247894
1345,1061,-0.2473825216293335,-0.498695433139801,-999.9736328125,-0.3134511411190033,-0.025052553042769432,-0.0028518380131572485
1315,1061,-0.2473825216293335,-0.498695433139801,-999.9736328125,-0.3134511411190033,-0.025052553042769432,-0.0028518380131572485
1314,1061,-0.2473825216293335,-0.498695433139801,-999.9736328125,-0.3134511411190033,-0.025052553042769432,-0.0028518380131572485
1369,1061,-0.2473825216293335,-0.498695433139801,-999.9736328125,-0.3134511411190033,-0.025052553042769432,-0.0028518380131572485
1276,1061,-0.2473825216293335,-0.498695433139801,-999.9736328125,-0.3134511411190033,-0.025052553042769432,-0.0028518380131572485
1246,1061,-0.2473825216293335,-0.498695433139801,-999.9736328125,-0.3134511411190033,-0.025052553042769432,-0.0028518380131572485
1245,1061,-0.2473825216293335,-0.498695433139801,-999.9736328125,-0.3134511411190033,-0.025052553042769432,-0.0028518380131572485
1300,1061,-0.2473825216293335,-0.498695433139801,-999.9736328125,-0.3134511411190033,-0.025052553042769432,-0.0028518380131572485
1354,1062,0.298695832490921,-0.9601505398750305,-1000.7481689453125,-0.023503145202994347,0.4296824336051941,-0.46168607473373413
1339,1062,0.298695832490921,-0.9601505398750305,-1000.7481689453125,-0.023503145202994347,0.4296824336051941,-0.46168607473373413
1336,1062,0.298695832490921,-0.9601505398750305,-1000.7481689453125,-0.023503145202994347,0.4296824336051941,-0.46168607473373413
1380,1062,0.298695832490921,-0.9601505398750305,-1000.7481689453125,-0.023503145202994347,0.4296824336051941,-0.46168607473373413
1285,1062,0.298695832490921,-0.9601505398750305,-1000.7481689453125,-0.023503145202994347,0.4296824336051941,-0.46168607473373413
1270,1062,0.298695832490921,-0.9601505398750305,-1000.7481689453125,-0.023503145202994347,0.4296824336051941,-0.46168607473373413
1267,1062,0.298695832490921,-0.9601505398750305,-1000.7481689453125,-0.023503145202994347,0.4296824336051941,-0.46168607473373413
1311,1062,0.298695832490921,-0.9601505398750305,-1000.7481689453125,-0.023503145202994347,0.4296824336051941,-0.46168607473373413
1365,1063,0.013251041993498802,0.28845086693763733,-999.9124755859375,0.5196959376335144,-0.06254319846630096,-0.08263581246137619
1380,1063,0.013251041993498802,0.28845086693763733,-999.9124755859375,0.5196959376335144,-0.06254319846630096,-0.08263581246137619
1356,1063,0.013251041993498802,0.28845086693763733,-999.9124755859375,0.5196959376335144,-0.06254319846630096,-0.08263581246137619
1364,1063,0.013251041993498802,0.28845086693763733,-999.9124755859375,0.5196959376335144,-0.06254319846630096,-0.08263581246137619
1296,1063,0.013251041993498802,0.28845086693763733,-999.9124755859375,0.5196959376335144,-0.06254319846630096,-0.08263581246137619
1311,1063,0.013251041993498802,0.28845086693763733,-999.9124755859375,0.5196959376335144,-0.06254319846630096,-0.08263581246137619
1287,1063,0.013251041993498802,0.28845086693763733,-999.9124755859375,0.5196959376335144,-0.06254319846630096,-0.08263581246137619
1295,1063,0.013251041993498802,0.28845086693763733,-999.9124755859375,0.5196959376335144,-0.06254319846630096,-0.08263581246137619
1335,1064,0.02568626217544079,0.6882621645927429,-1000.5904541015625,-0.240925133228302,0.1938532143831253,-0.21259188652038574
1352,1064,0.02568626217544079,0.6882621645927429,-1000.5904541015625,-0.240925133228302,0.1938532143831253,-0.21259188652038574
1374,1064,0.02568626217544079,0.6882621645927429,-1000.5904541015625,-0.240925133228302,0.1938532143831253,-0.21259188652038574
1359,1064,0.02568626217544079,0.6882621645927429,-1000.5904541015625,-0.240925133228302,0.1938532143831253,-0.21259188652038574
1266,1064,0.02568626217544079,0.6882621645927429,-1000.5904541015625,-0.240925133228302,0.1938532143831253,-0.21259188652038574
1283,1064,0.02568626217544079,0.6882621645927429,-1000.5904541015625,-0.240925133228302,0.1938532143831253,-0.21259188652038574
1305,1064,0.02568626217544079,0.6882621645927429,-1000.5904541015625,-0.240925133228302,0.1938532143831253,-0.21259188652038574
1290,1064,0.02568626217544079,0.6882621645927429,-1000.5904541015625,-0.240925133228302,0.1938532143831253,-0.21259188652038574
1359,1065,0.3034447133541107,-1.1889326572418213,-999.9803466796875,-0.006064452230930328,-0.08513104915618896,0.33159372210502625
1374,1065,0.3034447133541107,-1.1889326572418213,-999.9803466796875,-0.006064452230930328,-0.08513104915618896,0.33159372210502625
1358,1065,0.3034447133541107,-1.1889326572418213,-999.9803466796875,-0.006064452230930328,-0.08513104915618896,0.33159372210502625
1364,1065,0.3034447133541107,-1.1889326572418213,-999.9803466796875,-0.006064452230930328,-0.08513104915618896,0.33159372210502625
1290,1065,0.3034447133541107,-1.1889326572418213,-999.9803466796875,-0.006064452230930328,-0.08513104915618896,0.33159372210502625
1305,1065,0.3034447133541107,-1.1889326572418213,-999.9803466796875,-0.006064452230930328,-0.08513104915618896,0.33159372210502625
1289,1065,0.3034447133541107,-1.1889326572418213,-999.9803466796875,-0.006064452230930328,-0.08513104915618896,0.33159372210502625
1295,1065,0.3034447133541107,-1.1889326572418213,-999.9803466796875,-0.006064452230930328,-0.08513104915618896,0.33159372210502625
1361,1066,0.6374010443687439,1.0729000568389893,-999.8514404296875,0.2325284630060196,-0.04514334350824356,0.26301470398902893
1349,1066,0.6374010443687439,1.0729000568389893,-999.8514404296875,0.2325284630060196,-0.04514334350824356,0.26301470398902893
1345,1066,0.6374010443687439,1.0729000568389893,-999.8514404296875,0.2325284630060196,-0.04514334350824356,0.26301470398902893
1369,1066,0.6374010443687439,1.0729000568389893,-999.8514404296875,0.2325284630060196,-0.04514334350824356,0.26301470398902893
1292,1066,0.6374010443687439,1.0729000568389893,-999.8514404296875,0.2325284630060196,-0.04514334350824356,0.26301470398902893
1280,1066,0.6374010443687439,1.0729000568389893,-999.8514404296875,0.2325284630060196,-0.04514334350824356,0.26301470398902893
1276,1066,0.6374010443687439,1.0729000568389893,-999.8514404296875,0.2325284630060196,-0.04514334350824356,0.26301470398902893
1300,1066,0.6374010443687439,1.0729000568389893,-999.8514404296875,0.2325284630060196,-0.04514334350824356,0.26301470398902893
1359,1067,-0.8362347483634949,-1.1823240518569946,-1000.2163696289062,0.1992081254720688,-0.28446391224861145,-0.10583065450191498
1364,1067,-0.8362347483634949,-1.1823240518569946,-1000.2163696289062,0.1992081254720688,-0.28446391224861145,-0.10583065450191498
1356,1067,-0.8362347483634949,-1.1823240518569946,-1000.2163696289062,0.1992081254720688,-0.28446391224861145,-0.10583065450191498
1373,1067,-0.8362347483634949,-1.1823240518569946,-1000.2163696289062,0.1992081254720688,-0.28446391224861145,-0.10583065450191498
1290,1067,-0.8362347483634949,-1.1823240518569946,-1000.2163696289062,0.1992081254720688,-0.28446391224861145,-0.10583065450191498
1295,1067,-0.8362347483634949,-1.1823240518569946,-1000.2163696289062,0.1992081254720688,-0.28446391224861145,-0.10583065450191498
1287,1067,-0.8362347483634949,-1.1823240518569946,-1000.2163696289062,0.1992081254720688,-0.28446391224861145,-0.10583065450191498
1304,1067,-0.8362347483634949,-1.1823240518569946,-1000.2163696289062,0.1992081254720688,-0.28446391224861145,-0.10583065450191498
1337,1068,0.4282868206501007,1.6473764181137085,-1000.1155395507812,-0.170216903090477,0.02846534177660942,-0.12879353761672974
1368,1068,0.4282868206501007,1.6473764181137085,-1000.1155395507812,-0.170216903090477,0.02846534177660942,-0.12879353761672974
1375,1068,0.4282868206501007,1.6473764181137085,-1000.1155395507812,-0.170216903090477,0.02846534177660942,-0.12879353761672974
1358,1068,0.4282868206501007,1.6473764181137085,-1000.1155395507812,-0.170216903090477,0.02846534177660942,-0.12879353761672974
1268,1068,0.4282868206501007,1.6473764181137085,-1000.1155395507812,-0.170216903090477,0.02846534177660942,-0.12879353761672974
1299,1068,0.4282868206501007,1.6473764181137085,-1000.1155395507812,-0.170216903090477,0.02846534177660942,-0.12879353761672974
1306,1068,0.4282868206501007,1.6473764181137085,-1000.1155395507812,-0.170216903090477,0.02846534177660942,-0.12879353761672974
1289,1068,0.4282868206501007,1.6473764181137085,-1000.1155395507812,-0.170216903090477,0.02846534177660942,-0.12879353761672974
1379,1069,-0.7495657801628113,-0.8830581903457642,-999.9412231445312,-0.20794130861759186,0.33364206552505493,-0.3298655152320862
1361,1069,-0.7495657801628113,-0.8830581903457642,-999.9412231445312,-0.20794130861759186,0.33364206552505493,-0.3298655152320862
1346,1069,-0.7495657801628113,-0.8830581903457642,-999.9412231445312,-0.20794130861759186,0.33364206552505493,-0.3298655152320862
1367,1069,-0.7495657801628113,-0.8830581903457642,-999.9412231445312,-0.20794130861759186,0.33364206552505493,-0.3298655152320862
1310,1069,-0.7495657801628113,-0.8830581903457642,-999.9412231445312,-0.20794130861759186,0.33364206552505493,-0.3298655152320862
1292,1069,-0.7495657801628113,-0.8830581903457642,-999.9412231445312,-0.20794130861759186,0.33364206552505493,-0.3298655152320862
1277,1069,-0.7495657801628113,-0.8830581903457642,-999.9412231445312,-0.20794130861759186,0.33364206552505493,-0.3298655152320862
1298,1069,-0.7495657801628113,-0.8830581903457642,-999.9412231445312,-0.20794130861759186,0.33364206552505493,-0.3298655152320862
1355,1070,-1.580409049987793,0.22481539845466614,-1000.0936279296875,-0.0801265686750412,0.30550238490104675,0.08764070272445679
1377,1070,-1.580409049987793,0.22481539845466614,-1000.0936279296875,-0.0801265686750412,0.30550238490104675,0.08764070272445679
1362,1070,-1.580409049987793,0.22481539845466614,-1000.0936279296875,-0.0801265686750412,0.30550238490104675,0.08764070272445679
1366,1070,-1.580409049987793,0.22481539845466614,-1000.0936279296875,-0.0801265686750412,0.30550238490104675,0.08764070272445679
1286,1070,-1.580409049987793,0.22481539845466614,-1000.0936279296875,-0.0801265686750412,0.30550238490104675,0.08764070272445679
1308,1070,-1.580409049987793,0.22481539845466614,-1000.0936279296875,-0.0801265686750412,0.30550238490104675,0.08764070272445679
1293,1070,-1.580409049987793,0.22481539845466614,-1000.0936279296875,-0.0801265686750412,0.30550238490104675,0.08764070272445679
1297,1070,-1.580409049987793,0.22481539845466614,-1000.0936279296875,-0.0801265686750412,0.30550238490104675,0.08764070272445679
1378,1071,-0.08184913545846939,-0.29720401763916016,-1000.341552734375,-0.8377423286437988,-0.14477919042110443,0.08814482390880585
1350,1071,-0.08184913545846939,-0.29720401763916016,-1000.341552734375,-0.8377423286437988,-0.14477919042110443,0.08814482390880585
1343,1071,-0.08184913545846939,-0.29720401763916016,-1000.341552734375,-0.8377423286437988,-0.14477919042110443,0.08814482390880585
1357,1071,-0.08184913545846939,-0.29720401763916016,-1000.341552734375,-0.8377423286437988,-0.14477919042110443,0.08814482390880585
1309,1071,-0.08184913545846939,-0.29720401763916016,-1000.341552734375,-0.8377423286437988,-0.14477919042110443,0.08814482390880585
1281,1071,-0.08184913545846939,-0.29720401763916016,-1000.341552734375,-0.8377423286437988,-0.14477919042110443,0.08814482390880585
1274,1071,-0.08184913545846939,-0.29720401763916016,-1000.341552734375,-0.8377423286437988,-0.14477919042110443,0.08814482390880585
1288,1071,-0.08184913545846939,-0.29720401763916016,-1000.341552734375,-0.8377423286437988,-0.14477919042110443,0.08814482390880585
1367,1072,0.33812499046325684,-0.4100784659385681,-1000.0606689453125,0.461928129196167,-0.133794903755188,0.17059564590454102
1366,1072,0.33812499046325684,-0.4100784659385681,-1000.0606689453125,0.461928129196167,-0.133794903755188,0.17059564590454102
1357,1072,0.33812499046325684,-0.4100784659385681,-1000.0606689453125,0.461928129196167,-0.133794903755188,0.17059564590454102
1379,1072,0.33812499046325684,-0.4100784659385681,-1000.0606689453125,0.461928129196167,-0.133794903755188,0.17059564590454102
1298,1072,0.33812499046325684,-0.4100784659385681,-1000.0606689453125,0.461928129196167,-0.133794903755188,0.17059564590454102
1297,1072,0.33812499046325684,-0.4100784659385681,-1000.0606689453125,0.461928129196167,-0.133794903755188,0.17059564590454102
1288,1072,0.33812499046325684,-0.4100784659385681,-1000.0606689453125,0.461928129196167,-0.133794903755188,0.17059564590454102
1310,1072,0.33812499046325684,-0.4100784659385681,-1000.0606689453125,0.461928129196167,-0.133794903755188,0.17059564590454102
1367,1073,0.17318522930145264,0.9188488125801086,-999.94091796875,-0.03434305265545845,0.6978115439414978,0.13620002567768097
1372,1073,0.17318522930145264,0.9188488125801086,-999.94091796875,-0.03434305265545845,0.6978115439414978,0.13620002567768097
1365,1073,0.17318522930145264,0.9188488125801086,-999.94091796875,-0.03434305265545845,0.6978115439414978,0.13620002567768097
1364,1073,0.17318522930145264,0.9188488125801086,-999.94091796875,-0.03434305265545845,0.6978115439414978,0.13620002567768097
1298,1073,0.17318522930145264,0.9188488125801086,-999.94091796875,-0.03434305265545845,0.6978115439414978,0.13620002567768097
1303,1073,0.17318522930145264,0.9188488125801086,-999.94091796875,-0.03434305265545845,0.6978115439414978,0.13620002567768097
1296,1073,0.17318522930145264,0.9188488125801086,-999.94091796875,-0.03434305265545845,0.6978115439414978,0.13620002567768097
1295,1073,0.17318522930145264,0.9188488125801086,-999.94091796875,-0.03434305265545845,0.6978115439414978,0.13620002567768097
1357,1074,-1.137413501739502,-0.7243196368217468,-999.9817504882812,0.24735355377197266,0.2835097014904022,-0.41132667660713196
1366,1074,-1.137413501739502,-0.7243196368217468,-999.9817504882812,0.24735355377197266,0.2835097014904022,-0.41132667660713196
1362,1074,-1.137413501739502,-0.7243196368217468,-999.9817504882812,0.24735355377197266,0.2835097014904022,-0.41132667660713196
1378,1074,-1.137413501739502,-0.7243196368217468,-999.9817504882812,0.24735355377197266,0.2835097014904022,-0.41132667660713196
1288,1074,-1.137413501739502,-0.7243196368217468,-999.9817504882812,0.24735355377197266,0.2835097014904022,-0.41132667660713196
1297,1074,-1.137413501739502,-0.7243196368217468,-999.9817504882812,0.24735355377197266,0.2835097014904022,-0.41132667660713196
1293,1074,-1.137413501739502,-0.7243196368217468,-999.9817504882812,0.24735355377197266,0.2835097014904022,-0.41132667660713196
1309,1074,-1.137413501739502,-0.7243196368217468,-999.9817504882812,0.24735355377197266,0.2835097014904022,-0.41132667660713196
1368,1075,-0.24716836214065552,-0.7405301332473755,-999.9778442382812,-0.25707805156707764,0.04025156423449516,-0.03143810108304024
1322,1075,-0.24716836214065552,-0.7405301332473755,-999.9778442382812,-0.25707805156707764,0.04025156423449516,-0.03143810108304024
1321,1075,-0.24716836214065552,-0.7405301332473755,-999.9778442382812,-0.25707805156707764,0.04025156423449516,-0.03143810108304024
1338,1075,-0.24716836214065552,-0.7405301332473755,-999.9778442382812,-0.25707805156707764,0.04025156423449516,-0.03143810108304024
1299,1075,-0.24716836214065552,-0.7405301332473755,-999.9778442382812,-0.25707805156707764,0.04025156423449516,-0.03143810108304024
1253,1075,-0.24716836214065552,-0.7405301332473755,-999.9778442382812,-0.25707805156707764,0.04025156423449516,-0.03143810108304024
1252,1075,-0.24716836214065552,-0.7405301332473755,-999.9778442382812,-0.25707805156707764,0.04025156423449516,-0.03143810108304024
1269,1075,-0.24716836214065552,-0.7405301332473755,-999.9778442382812,-0.25707805156707764,0.04025156423449516,-0.03143810108304024
1370,1076,-0.39185675978660583,-0.7285411357879639,-1000.0155639648438,-0.36294662952423096,-0.08039736747741699,0.06665333360433578
1313,1076,-0.39185675978660583,-0.7285411357879639,-1000.0155639648438,-0.36294662952423096,-0.08039736747741699,0.06665333360433578
1328,1076,-0.39185675978660583,-0.7285411357879639,-1000.0155639648438,-0.36294662952423096,-0.08039736747741699,0.06665333360433578
1348,1076,-0.39185675978660583,-0.7285411357879639,-1000.0155639648438,-0.36294662952423096,-0.08039736747741699,0.06665333360433578
1301,1076,-0.39185675978660583,-0.7285411357879639,-1000.0155639648438,-0.36294662952423096,-0.08039736747741699,0.06665333360433578
1244,1076,-0.39185675978660583,-0.7285411357879639,-1000.0155639648438,-0.36294662952423096,-0.08039736747741699,0.06665333360433578
1259,1076,-0.39185675978660583,-0.7285411357879639,-1000.0155639648438,-0.36294662952423096,-0.08039736747741699,0.06665333360433578
1279,1076,-0.39185675978660583,-0.7285411357879639,-1000.0155639648438,-0.36294662952423096,-0.08039736747741699,0.06665333360433578
1347,1077,-0.3163180649280548,-0.33737650513648987,-1000.4512939453125,0.36518174409866333,0.3599682152271271,-0.11813683807849884
1371,1077,-0.3163180649280548,-0.33737650513648987,-1000.4512939453125,0.36518174409866333,0.3599682152271271,-0.11813683807849884
1360,1077,-0.3163180649280548,-0.33737650513648987,-1000.4512939453125,0.36518174409866333,0.3599682152271271,-0.11813683807849884
1348,1077,-0.3163180649280548,-0.33737650513648987,-1000.4512939453125,0.36518174409866333,0.3599682152271271,-0.11813683807849884
1278,1077,-0.3163180649280548,-0.33737650513648987,-1000.4512939453125,0.36518174409866333,0.3599682152271271,-0.11813683807849884
1302,1077,-0.3163180649280548,-0.33737650513648987,-1000.4512939453125,0.36518174409866333,0.3599682152271271,-0.11813683807849884
1291,1077,-0.3163180649280548,-0.33737650513648987,-1000.4512939453125,0.36518174409866333,0.3599682152271271,-0.11813683807849884
1279,1077,-0.3163180649280548,-0.33737650513648987,-1000.4512939453125,0.36518174409866333,0.3599682152271271,-0.11813683807849884
1371,1078,-1.3327364921569824,-0.7611624598503113,-1000.2487182617188,-0.3892393708229065,-0.8061152696609497,0.3921981453895569
1354,1078,-1.3327364921569824,-0.7611624598503113,-1000.2487182617188,-0.3892393708229065,-0.8061152696609497,0.3921981453895569
1380,1078,-1.3327364921569824,-0.7611624598503113,-1000.2487182617188,-0.3892393708229065,-0.8061152696609497,0.3921981453895569
1365,1078,-1.3327364921569824,-0.7611624598503113,-1000.2487182617188,-0.3892393708229065,-0.8061152696609497,0.3921981453895569
1302,1078,-1.3327364921569824,-0.7611624598503113,-1000.2487182617188,-0.3892393708229065,-0.8061152696609497,0.3921981453895569
1285,1078,-1.3327364921569824,-0.7611624598503113,-1000.2487182617188,-0.3892393708229065,-0.8061152696609497,0.3921981453895569
1311,1078,-1.3327364921569824,-0.7611624598503113,-1000.2487182617188,-0.3892393708229065,-0.8061152696609497,0.3921981453895569
1296,1078,-1.3327364921569824,-0.7611624598503113,-1000.2487182617188,-0.3892393708229065,-0.8061152696609497,0.3921981453895569
1373,1079,0.6111981272697449,1.8976202011108398,-999.1778564453125,0.05788249522447586,0.149209663271904,0.19934570789337158
1334,1079,0.6111981272697449,1.8976202011108398,-999.1778564453125,0.05788249522447586,0.149209663271904,0.19934570789337158
1335,1079,0.6111981272697449,1.8976202011108398,-999.1778564453125,0.05788249522447586,0.149209663271904,0.19934570789337158
1359,1079,0.6111981272697449,1.8976202011108398,-999.1778564453125,0.05788249522447586,0.149209663271904,0.19934570789337158
1304,1079,0.6111981272697449,1.8976202011108398,-999.1778564453125,0.05788249522447586,0.149209663271904,0.19934570789337158
1265,1079,0.6111981272697449,1.8976202011108398,-999.1778564453125,0.05788249522447586,0.149209663271904,0.19934570789337158
1266,1079,0.6111981272697449,1.8976202011108398,-999.1778564453125,0.05788249522447586,0.149209663271904,0.19934570789337158
1290,1079,0.6111981272697449,1.8976202011108398,-999.1778564453125,0.05788249522447586,0.149209663271904,0.19934570789337158
1374,1080,0.29675957560539246,1.2667194604873657,-999.6170043945312,0.18625684082508087,-0.16299286484718323,-0.08113431930541992
1352,1080,0.29675957560539246,1.2667194604873657,-999.6170043945312,0.18625684082508087,-0.16299286484718323,-0.08113431930541992
1337,1080,0.29675957560539246,1.2667194604873657,-999.6170043945312,0.18625684082508087,-0.16299286484718323,-0.08113431930541992
1358,1080,0.29675957560539246,1.2667194604873657,-999.6170043945312,0.18625684082508087,-0.16299286484718323,-0.08113431930541992
1305,1080,0.29675957560539246,1.2667194604873657,-999.6170043945312,0.18625684082508087,-0.16299286484718323,-0.08113431930541992
1283,1080,0.29675957560539246,1.2667194604873657,-999.6170043945312,0.18625684082508087,-0.16299286484718323,-0.08113431930541992
1268,1080,0.29675957560539246,1.2667194604873657,-999.6170043945312,0.18625684082508087,-0.16299286484718323,-0.08113431930541992
1289,1080,0.29675957560539246,1.2667194604873657,-999.6170043945312,0.18625684082508087,-0.16299286484718323,-0.08113431930541992
1376,1081,0.5744907855987549,-0.33798477053642273,-1000.0670776367188,-0.03703521937131882,-0.4423343539237976,0.062334634363651276
1351,1081,0.5744907855987549,-0.33798477053642273,-1000.0670776367188,-0.03703521937131882,-0.4423343539237976,0.062334634363651276
1340,1081,0.5744907855987549,-0.33798477053642273,-1000.0670776367188,-0.03703521937131882,-0.4423343539237976,0.062334634363651276
1355,1081,0.5744907855987549,-0.33798477053642273,-1000.0670776367188,-0.03703521937131882,-0.4423343539237976,0.062334634363651276
1307,1081,0.5744907855987549,-0.33798477053642273,-1000.0670776367188,-0.03703521937131882,-0.4423343539237976,0.062334634363651276
1282,1081,0.5744907855987549,-0.33798477053642273,-1000.0670776367188,-0.03703521937131882,-0.4423343539237976,0.062334634363651276
1271,1081,0.5744907855987549,-0.33798477053642273,-1000.0670776367188,-0.03703521937131882,-0.4423343539237976,0.062334634363651276
1286,1081,0.5744907855987549,-0.33798477053642273,-1000.0670776367188,-0.03703521937131882,-0.4423343539237976,0.062334634363651276
1377,1082,0.7755712270736694,-0.3093940019607544,-1000.3057861328125,-0.3132665157318115,-0.3506225645542145,0.15849918127059937
1341,1082,0.7755712270736694,-0.3093940019607544,-1000.3057861328125,-0.3132665157318115,-0.3506225645542145,0.15849918127059937
1342,1082,0.7755712270736694,-0.3093940019607544,-1000.3057861328125,-0.3132665157318115,-0.3506225645542145,0.15849918127059937
1362,1082,0.7755712270736694,-0.3093940019607544,-1000.3057861328125,-0.3132665157318115,-0.3506225645542145,0.15849918127059937
1308,1082,0.7755712270736694,-0.3093940019607544,-1000.3057861328125,-0.3132665157318115,-0.3506225645542145,0.15849918127059937
1272,1082,0.7755712270736694,-0.3093940019607544,-1000.3057861328125,-0.3132665157318115,-0.3506225645542145,0.15849918127059937
1273,1082,0.7755712270736694,-0.3093940019607544,-1000.3057861328125,-0.3132665157318115,-0.3506225645542145,0.15849918127059937
1293,1082,0.7755712270736694,-0.3093940019607544,-1000.3057861328125,-0.3132665157318115,-0.3506225645542145,0.15849918127059937
1379,1083,-0.4006163477897644,0.16625140607357025,-1000.2116088867188,-0.29881972074508667,-0.13406090438365936,0.13017353415489197
1344,1083,-0.4006163477897644,0.16625140607357025,-1000.2116088867188,-0.29881972074508667,-0.13406090438365936,0.13017353415489197
1349,1083,-0.4006163477897644,0.16625140607357025,-1000.2116088867188,-0.29881972074508667,-0.13406090438365936,0.13017353415489197
1361,1083,-0.4006163477897644,0.16625140607357025,-1000.2116088867188,-0.29881972074508667,-0.13406090438365936,0.13017353415489197
1310,1083,-0.4006163477897644,0.16625140607357025,-1000.2116088867188,-0.29881972074508667,-0.13406090438365936,0.13017353415489197
1275,1083,-0.4006163477897644,0.16625140607357025,-1000.2116088867188,-0.29881972074508667,-0.13406090438365936,0.13017353415489197
1280,1083,-0.4006163477897644,0.16625140607357025,-1000.2116088867188,-0.29881972074508667,-0.13406090438365936,0.13017353415489197
1292,1083,-0.4006163477897644,0.16625140607357025,-1000.2116088867188,-0.29881972074508667,-0.13406090438365936,0.13017353415489197
1404,1084,0.11020942032337189,0.7675067186355591,-1000.00146484375,-0.006730018183588982,0.072408527135849,0.027956830337643623
1393,1084,0.11020942032337189,0.7675067186355591,-1000.00146484375,-0.006730018183588982,0.072408527135849,0.027956830337643623
1392,1084,0.11020942032337189,0.7675067186355591,-1000.00146484375,-0.006730018183588982,0.072408527135849,0.027956830337643623
1421,1084,0.11020942032337189,0.7675067186355591,-1000.00146484375,-0.006730018183588982,0.072408527135849,0.027956830337643623
1335,1084,0.11020942032337189,0.7675067186355591,-1000.00146484375,-0.006730018183588982,0.072408527135849,0.027956830337643623
1324,1084,0.11020942032337189,0.7675067186355591,-1000.00146484375,-0.006730018183588982,0.072408527135849,0.027956830337643623
1323,1084,0.11020942032337189,0.7675067186355591,-1000.00146484375,-0.006730018183588982,0.072408527135849,0.027956830337643623
1352,1084,0.11020942032337189,0.7675067186355591,-1000.00146484375,-0.006730018183588982,0.072408527135849,0.027956830337643623
1421,1085,0.2613222301006317,0.9383817315101624,-1000.034912109375,-0.07251576334238052,-0.05179913714528084,-0.07287304103374481
1392,1085,0.2613222301006317,0.9383817315101624,-1000.034912109375,-0.07251576334238052,-0.05179913714528084,-0.07287304103374481
1401,1085,0.2613222301006317,0.9383817315101624,-1000.034912109375,-0.07251576334238052,-0.05179913714528084,-0.07287304103374481
1406,1085,0.2613222301006317,0.9383817315101624,-1000.034912109375,-0.07251576334238052,-0.05179913714528084,-0.07287304103374481
1352,1085,0.2613222301006317,0.9383817315101624,-1000.034912109375,-0.07251576334238052,-0.05179913714528084,-0.07287304103374481
1323,1085,0.2613222301006317,0.9383817315101624,-1000.034912109375,-0.07251576334238052,-0.05179913714528084,-0.07287304103374481
1332,1085,0.2613222301006317,0.9383817315101624,-1000.034912109375,-0.07251576334238052,-0.05179913714528084,-0.07287304103374481
1337,1085,0.2613222301006317,0.9383817315101624,-1000.034912109375,-0.07251576334238052,-0.05179913714528084,-0.07287304103374481
1402,1086,0.31386271119117737,0.310874879360199,-999.9893798828125,-0.16449834406375885,0.06306935846805573,-0.09751801937818527
1422,1086,0.31386271119117737,0.310874879360199,-999.9893798828125,-0.16449834406375885,0.06306935846805573,-0.09751801937818527
1405,1086,0.31386271119117737,0.310874879360199,-999.9893798828125,-0.16449834406375885,0.06306935846805573,-0.09751801937818527
1395,1086,0.31386271119117737,0.310874879360199,-999.9893798828125,-0.16449834406375885,0.06306935846805573,-0.09751801937818527
1333,1086,0.31386271119117737,0.310874879360199,-999.9893798828125,-0.16449834406375885,0.06306935846805573,-0.09751801937818527
1353,1086,0.31386271119117737,0.310874879360199,-999.9893798828125,-0.16449834406375885,0.06306935846805573,-0.09751801937818527
1336,1086,0.31386271119117737,0.310874879360199,-999.9893798828125,-0.16449834406375885,0.06306935846805573,-0.09751801937818527
1326,1086,0.31386271119117737,0.310874879360199,-999.9893798828125,-0.16449834406375885,0.06306935846805573,-0.09751801937818527
1393,1087,0.27334073185920715,1.054975986480713,-999.9491577148438,-0.12152459472417831,0.010718090459704399,-0.04694681242108345
1404,1087,0.27334073185920715,1.054975986480713,-999.9491577148438,-0.12152459472417831,0.010718090459704399,-0.04694681242108345
1403,1087,0.27334073185920715,1.054975986480713,-999.9491577148438,-0.12152459472417831,0.010718090459704399,-0.04694681242108345
1394,1087,0.27334073185920715,1.054975986480713,-999.9491577148438,-0.12152459472417831,0.010718090459704399,-0.04694681242108345
1324,1087,0.27334073185920715,1.054975986480713,-999.9491577148438,-0.12152459472417831,0.010718090459704399,-0.04694681242108345
1335,1087,0.27334073185920715,1.054975986480713,-999.9491577148438,-0.12152459472417831,0.010718090459704399,-0.04694681242108345
1334,1087,0.27334073185920715,1.054975986480713,-999.9491577148438,-0.12152459472417831,0.010718090459704399,-0.04694681242108345
1325,1087,0.27334073185920715,1.054975986480713,-999.9491577148438,-0.12152459472417831,0.010718090459704399,-0.04694681242108345
1432,1088,0.4690815210342407,0.39927592873573303,-999.9776611328125,0.32523292303085327,-0.22409400343894958,-0.40364813804626465
1445,1088,0.4690815210342407,0.39927592873573303,-999.9776611328125,0.32523292303085327,-0.22409400343894958,-0.40364813804626465
1424,1088,0.4690815210342407,0.39927592873573303,-999.9776611328125,0.32523292303085327,-0.22409400343894958,-0.40364813804626465
1435,1088,0.4690815210342407,0.39927592873573303,-999.9776611328125,0.32523292303085327,-0.22409400343894958,-0.40364813804626465
1363,1088,0.4690815210342407,0.39927592873573303,-999.9776611328125,0.32523292303085327,-0.22409400343894958,-0.40364813804626465
1376,1088,0.4690815210342407,0.39927592873573303,-999.9776611328125,0.32523292303085327,-0.22409400343894958,-0.40364813804626465
1355,1088,0.4690815210342407,0.39927592873573303,-999.9776611328125,0.32523292303085327,-0.22409400343894958,-0.40364813804626465
1366,1088,0.4690815210342407,0.39927592873573303,-999.9776611328125,0.32523292303085327,-0.22409400343894958,-0.40364813804626465
1448,1089,-1.1820002794265747,-1.4549657106399536,-1000.3222045898438,0.0733402669429779,-0.016769004985690117,-0.019254112616181374
1426,1089,-1.1820002794265747,-1.4549657106399536,-1000.3222045898438,0.0733402669429779,-0.016769004985690117,-0.019254112616181374
1412,1089,-1.1820002794265747,-1.4549657106399536,-1000.3222045898438,0.0733402669429779,-0.016769004985690117,-0.019254112616181374
1413,1089,-1.1820002794265747,-1.4549657106399536,-1000.3222045898438,0.0733402669429779,-0.016769004985690117,-0.019254112616181374
1379,1089,-1.1820002794265747,-1.4549657106399536,-1000.3222045898438,0.0733402669429779,-0.016769004985690117,-0.019254112616181374
1357,1089,-1.1820002794265747,-1.4549657106399536,-1000.3222045898438,0.0733402669429779,-0.016769004985690117,-0.019254112616181374
1343,1089,-1.1820002794265747,-1.4549657106399536,-1000.3222045898438,0.0733402669429779,-0.016769004985690117,-0.019254112616181374
1344,1089,-1.1820002794265747,-1.4549657106399536,-1000.3222045898438,0.0733402669429779,-0.016769004985690117,-0.019254112616181374
1436,1090,-0.6767645478248596,-0.886343777179718,-1000.1587524414062,0.2695833742618561,0.36555731296539307,0.1705002337694168
1433,1090,-0.6767645478248596,-0.886343777179718,-1000.1587524414062,0.2695833742618561,0.36555731296539307,0.1705002337694168
1432,1090,-0.6767645478248596,-0.886343777179718,-1000.1587524414062,0.2695833742618561,0.36555731296539307,0.1705002337694168
1435,1090,-0.6767645478248596,-0.886343777179718,-1000.1587524414062,0.2695833742618561,0.36555731296539307,0.1705002337694168
1367,1090,-0.6767645478248596,-0.886343777179718,-1000.1587524414062,0.2695833742618561,0.36555731296539307,0.1705002337694168
1364,1090,-0.6767645478248596,-0.886343777179718,-1000.1587524414062,0.2695833742618561,0.36555731296539307,0.1705002337694168
1363,1090,-0.6767645478248596,-0.886343777179718,-1000.1587524414062,0.2695833742618561,0.36555731296539307,0.1705002337694168
1366,1090,-0.6767645478248596,-0.886343777179718,-1000.1587524414062,0.2695833742618561,0.36555731296539307,0.1705002337694168
1427,1091,0.872280478477478,1.568739414215088,-999.8107299804688,0.16434133052825928,-0.2873915433883667,-0.027292590588331223
1444,1091,0.872280478477478,1.568739414215088,-999.8107299804688,0.16434133052825928,-0.2873915433883667,-0.027292590588331223
1432,1091,0.872280478477478,1.568739414215088,-999.8107299804688,0.16434133052825928,-0.2873915433883667,-0.027292590588331223
1433,1091,0.872280478477478,1.568739414215088,-999.8107299804688,0.16434133052825928,-0.2873915433883667,-0.027292590588331223
1358,1091,0.872280478477478,1.568739414215088,-999.8107299804688,0.16434133052825928,-0.2873915433883667,-0.027292590588331223
1375,1091,0.872280478477478,1.568739414215088,-999.8107299804688,0.16434133052825928,-0.2873915433883667,-0.027292590588331223
1363,1091,0.872280478477478,1.568739414215088,-999.8107299804688,0.16434133052825928,-0.2873915433883667,-0.027292590588331223
1364,1091,0.872280478477478,1.568739414215088,-999.8107299804688,0.16434133052825928,-0.2873915433883667,-0.027292590588331223
1407,1092,-0.5910808444023132,-0.493323415517807,-999.9028930664062,-0.3284763693809509,-0.32112300395965576,0.33211037516593933
1420,1092,-0.5910808444023132,-0.493323415517807,-999.9028930664062,-0.3284763693809509,-0.32112300395965576,0.33211037516593933
1445,1092,-0.5910808444023132,-0.493323415517807,-999.9028930664062,-0.3284763693809509,-0.32112300395965576,0.33211037516593933
1432,1092,-0.5910808444023132,-0.493323415517807,-999.9028930664062,-0.3284763693809509,-0.32112300395965576,0.33211037516593933
1338,1092,-0.5910808444023132,-0.493323415517807,-999.9028930664062,-0.3284763693809509,-0.32112300395965576,0.33211037516593933
1351,1092,-0.5910808444023132,-0.493323415517807,-999.9028930664062,-0.3284763693809509,-0.32112300395965576,0.33211037516593933
1376,1092,-0.5910808444023132,-0.493323415517807,-999.9028930664062,-0.3284763693809509,-0.32112300395965576,0.33211037516593933
1363,1092,-0.5910808444023132,-0.493323415517807,-999.9028930664062,-0.3284763693809509,-0.32112300395965576,0.33211037516593933
1447,1093,-2.1268668174743652,-0.879496693611145,-1000.43359375,-0.43945565819740295,0.05508452653884888,-0.20592820644378662
1431,1093,-2.1268668174743652,-0.879496693611145,-1000.43359375,-0.43945565819740295,0.05508452653884888,-0.20592820644378662
1411,1093,-2.1268668174743652,-0.879496693611145,-1000.43359375,-0.43945565819740295,0.05508452653884888,-0.20592820644378662
1419,1093,-2.1268668174743652,-0.879496693611145,-1000.43359375,-0.43945565819740295,0.05508452653884888,-0.20592820644378662
1378,1093,-2.1268668174743652,-0.879496693611145,-1000.43359375,-0.43945565819740295,0.05508452653884888,-0.20592820644378662
1362,1093,-2.1268668174743652,-0.879496693611145,-1000.43359375,-0.43945565819740295,0.05508452653884888,-0.20592820644378662
1342,1093,-2.1268668174743652,-0.879496693611145,-1000.43359375,-0.43945565819740295,0.05508452653884888,-0.20592820644378662
1350,1093,-2.1268668174743652,-0.879496693611145,-1000.43359375,-0.43945565819740295,0.05508452653884888,-0.20592820644378662
1441,1094,0.6416252255439758,0.9187831878662109,-999.6007690429688,0.25555619597435,0.8026483058929443,-0.565316379070282
1436,1094,0.6416252255439758,0.9187831878662109,-999.6007690429688,0.25555619597435,0.8026483058929443,-0.565316379070282
1415,1094,0.6416252255439758,0.9187831878662109,-999.6007690429688,0.25555619597435,0.8026483058929443,-0.565316379070282
1429,1094,0.6416252255439758,0.9187831878662109,-999.6007690429688,0.25555619597435,0.8026483058929443,-0.565316379070282
1372,1094,0.6416252255439758,0.9187831878662109,-999.6007690429688,0.25555619597435,0.8026483058929443,-0.565316379070282
1367,1094,0.6416252255439758,0.9187831878662109,-999.6007690429688,0.25555619597435,0.8026483058929443,-0.565316379070282
1346,1094,0.6416252255439758,0.9187831878662109,-999.6007690429688,0.25555619597435,0.8026483058929443,-0.565316379070282
1360,1094,0.6416252255439758,0.9187831878662109,-999.6007690429688,0.25555619597435,0.8026483058929443,-0.565316379070282
1415,1095,-0.7406587600708008,-0.3293069005012512,-999.9004516601562,-0.5697973966598511,0.04676571115851402,0.20433524250984192
1430,1095,-0.7406587600708008,-0.3293069005012512,-999.9004516601562,-0.5697973966598511,0.04676571115851402,0.20433524250984192
1438,1095,-0.7406587600708008,-0.3293069005012512,-999.9004516601562,-0.5697973966598511,0.04676571115851402,0.20433524250984192
1439,1095,-0.7406587600708008,-0.3293069005012512,-999.9004516601562,-0.5697973966598511,0.04676571115851402,0.20433524250984192
1346,1095,-0.7406587600708008,-0.3293069005012512,-999.9004516601562,-0.5697973966598511,0.04676571115851402,0.20433524250984192
1361,1095,-0.7406587600708008,-0.3293069005012512,-999.9004516601562,-0.5697973966598511,0.04676571115851402,0.20433524250984192
1369,1095,-0.7406587600708008,-0.3293069005012512,-999.9004516601562,-0.5697973966598511,0.04676571115851402,0.20433524250984192
1370,1095,-0.7406587600708008,-0.3293069005012512,-999.9004516601562,-0.5697973966598511,0.04676571115851402,0.20433524250984192
1422,1096,-0.14470502734184265,-0.07419976592063904,-999.1533203125,0.7504053711891174,-0.0441250316798687,0.20371967554092407
1403,1096,-0.14470502734184265,-0.07419976592063904,-999.1533203125,0.7504053711891174,-0.0441250316798687,0.20371967554092407
1442,1096,-0.14470502734184265,-0.07419976592063904,-999.1533203125,0.7504053711891174,-0.0441250316798687,0.20371967554092407
1425,1096,-0.14470502734184265,-0.07419976592063904,-999.1533203125,0.7504053711891174,-0.0441250316798687,0.20371967554092407
1353,1096,-0.14470502734184265,-0.07419976592063904,-999.1533203125,0.7504053711891174,-0.0441250316798687,0.20371967554092407
1334,1096,-0.14470502734184265,-0.07419976592063904,-999.1533203125,0.7504053711891174,-0.0441250316798687,0.20371967554092407
1373,1096,-0.14470502734184265,-0.07419976592063904,-999.1533203125,0.7504053711891174,-0.0441250316798687,0.20371967554092407
1356,1096,-0.14470502734184265,-0.07419976592063904,-999.1533203125,0.7504053711891174,-0.0441250316798687,0.20371967554092407
1449,1097,-0.942010760307312,-1.2562857866287231,-1000.7781982421875,0.21518774330615997,-0.1987634152173996,-0.2421949952840805
1405,1097,-0.942010760307312,-1.2562857866287231,-1000.7781982421875,0.21518774330615997,-0.1987634152173996,-0.2421949952840805
1422,1097,-0.942010760307312,-1.2562857866287231,-1000.7781982421875,0.21518774330615997,-0.1987634152173996,-0.2421949952840805
1425,1097,-0.942010760307312,-1.2562857866287231,-1000.7781982421875,0.21518774330615997,-0.1987634152173996,-0.2421949952840805
1380,1097,-0.942010760307312,-1.2562857866287231,-1000.7781982421875,0.21518774330615997,-0.1987634152173996,-0.2421949952840805
1336,1097,-0.942010760307312,-1.2562857866287231,-1000.7781982421875,0.21518774330615997,-0.1987634152173996,-0.2421949952840805
1353,1097,-0.942010760307312,-1.2562857866287231,-1000.7781982421875,0.21518774330615997,-0.1987634152173996,-0.2421949952840805
1356,1097,-0.942010760307312,-1.2562857866287231,-1000.7781982421875,0.21518774330615997,-0.1987634152173996,-0.2421949952840805
1409,1098,-1.1089372634887695,-0.5391138792037964,-1000.2750854492188,-0.1917763203382492,-0.21804817020893097,0.3660780191421509
1410,1098,-1.1089372634887695,-0.5391138792037964,-1000.2750854492188,-0.1917763203382492,-0.21804817020893097,0.3660780191421509
1446,1098,-1.1089372634887695,-0.5391138792037964,-1000.2750854492188,-0.1917763203382492,-0.21804817020893097,0.3660780191421509
1424,1098,-1.1089372634887695,-0.5391138792037964,-1000.2750854492188,-0.1917763203382492,-0.21804817020893097,0.3660780191421509
1340,1098,-1.1089372634887695,-0.5391138792037964,-1000.2750854492188,-0.1917763203382492,-0.21804817020893097,0.3660780191421509
1341,1098,-1.1089372634887695,-0.5391138792037964,-1000.2750854492188,-0.1917763203382492,-0.21804817020893097,0.3660780191421509
1377,1098,-1.1089372634887695,-0.5391138792037964,-1000.2750854492188,-0.1917763203382492,-0.21804817020893097,0.3660780191421509
1355,1098,-1.1089372634887695,-0.5391138792037964,-1000.2750854492188,-0.1917763203382492,-0.21804817020893097,0.3660780191421509
1394,1099,0.3443453907966614,0.8086847066879272,-1000.0043334960938,-0.453625351190567,0.013411414809525013,0.08107592165470123
1403,1099,0.3443453907966614,0.8086847066879272,-1000.0043334960938,-0.453625351190567,0.013411414809525013,0.08107592165470123
1422,1099,0.3443453907966614,0.8086847066879272,-1000.0043334960938,-0.453625351190567,0.013411414809525013,0.08107592165470123
1402,1099,0.3443453907966614,0.8086847066879272,-1000.0043334960938,-0.453625351190567,0.013411414809525013,0.08107592165470123
1325,1099,0.3443453907966614,0.8086847066879272,-1000.0043334960938,-0.453625351190567,0.013411414809525013,0.08107592165470123
1334,1099,0.3443453907966614,0.8086847066879272,-1000.0043334960938,-0.453625351190567,0.013411414809525013,0.08107592165470123
1353,1099,0.3443453907966614,0.8086847066879272,-1000.0043334960938,-0.453625351190567,0.013411414809525013,0.08107592165470123
1333,1099,0.3443453907966614,0.8086847066879272,-1000.0043334960938,-0.453625351190567,0.013411414809525013,0.08107592165470123
1391,1100,0.3853970170021057,1.5156606435775757,-999.9274291992188,-0.003771947929635644,0.014204093255102634,-0.013939408585429192
1437,1100,0.3853970170021057,1.5156606435775757,-999.9274291992188,-0.003771947929635644,0.014204093255102634,-0.013939408585429192
1406,1100,0.3853970170021057,1.5156606435775757,-999.9274291992188,-0.003771947929635644,0.014204093255102634,-0.013939408585429192
1401,1100,0.3853970170021057,1.5156606435775757,-999.9274291992188,-0.003771947929635644,0.014204093255102634,-0.013939408585429192
1322,1100,0.3853970170021057,1.5156606435775757,-999.9274291992188,-0.003771947929635644,0.014204093255102634,-0.013939408585429192
1368,1100,0.3853970170021057,1.5156606435775757,-999.9274291992188,-0.003771947929635644,0.014204093255102634,-0.013939408585429192
1337,1100,0.3853970170021057,1.5156606435775757,-999.9274291992188,-0.003771947929635644,0.014204093255102634,-0.013939408585429192
1332,1100,0.3853970170021057,1.5156606435775757,-999.9274291992188,-0.003771947929635644,0.014204093255102634,-0.013939408585429192
1407,1101,0.5941030383110046,0.13943803310394287,-999.99755859375,0.19475075602531433,0.05530095845460892,-0.09914253652095795
1390,1101,0.5941030383110046,0.13943803310394287,-999.99755859375,0.19475075602531433,0.05530095845460892,-0.09914253652095795
1400,1101,0.5941030383110046,0.13943803310394287,-999.99755859375,0.19475075602531433,0.05530095845460892,-0.09914253652095795
1420,1101,0.5941030383110046,0.13943803310394287,-999.99755859375,0.19475075602531433,0.05530095845460892,-0.09914253652095795
1338,1101,0.5941030383110046,0.13943803310394287,-999.99755859375,0.19475075602531433,0.05530095845460892,-0.09914253652095795
1321,1101,0.5941030383110046,0.13943803310394287,-999.99755859375,0.19475075602531433,0.05530095845460892,-0.09914253652095795
1331,1101,0.5941030383110046,0.13943803310394287,-999.99755859375,0.19475075602531433,0.05530095845460892,-0.09914253652095795
1351,1101,0.5941030383110046,0.13943803310394287,-999.99755859375,0.19475075602531433,0.05530095845460892,-0.09914253652095795
1408,1102,0.7608833312988281,0.11704397946596146,-1000.0475463867188,-0.021387740969657898,0.07913726568222046,0.05136958882212639
1396,1102,0.7608833312988281,0.11704397946596146,-1000.0475463867188,-0.021387740969657898,0.07913726568222046,0.05136958882212639
1395,1102,0.7608833312988281,0.11704397946596146,-1000.0475463867188,-0.021387740969657898,0.07913726568222046,0.05136958882212639
1405,1102,0.7608833312988281,0.11704397946596146,-1000.0475463867188,-0.021387740969657898,0.07913726568222046,0.05136958882212639
1339,1102,0.7608833312988281,0.11704397946596146,-1000.0475463867188,-0.021387740969657898,0.07913726568222046,0.05136958882212639
1327,1102,0.7608833312988281,0.11704397946596146,-1000.0475463867188,-0.021387740969657898,0.07913726568222046,0.05136958882212639
1326,1102,0.7608833312988281,0.11704397946596146,-1000.0475463867188,-0.021387740969657898,0.07913726568222046,0.05136958882212639
1336,1102,0.7608833312988281,0.11704397946596146,-1000.0475463867188,-0.021387740969657898,0.07913726568222046,0.05136958882212639
1420,1103,0.4740945100784302,-0.07825899124145508,-1000.0328979492188,-0.0597681999206543,-0.08774162083864212,0.05750206857919693
1400,1103,0.4740945100784302,-0.07825899124145508,-1000.0328979492188,-0.0597681999206543,-0.08774162083864212,0.05750206857919693
1389,1103,0.4740945100784302,-0.07825899124145508,-1000.0328979492188,-0.0597681999206543,-0.08774162083864212,0.05750206857919693
1409,1103,0.4740945100784302,-0.07825899124145508,-1000.0328979492188,-0.0597681999206543,-0.08774162083864212,0.05750206857919693
1351,1103,0.4740945100784302,-0.07825899124145508,-1000.0328979492188,-0.0597681999206543,-0.08774162083864212,0.05750206857919693
1331,1103,0.4740945100784302,-0.07825899124145508,-1000.0328979492188,-0.0597681999206543,-0.08774162083864212,0.05750206857919693
1320,1103,0.4740945100784302,-0.07825899124145508,-1000.0328979492188,-0.0597681999206543,-0.08774162083864212,0.05750206857919693
1340,1103,0.4740945100784302,-0.07825899124145508,-1000.0328979492188,-0.0597681999206543,-0.08774162083864212,0.05750206857919693
1444,1104,-0.30412450432777405,-0.6636636257171631,-1000.15087890625,-0.5867882370948792,0.25694140791893005,-0.13259294629096985
1437,1104,-0.30412450432777405,-0.6636636257171631,-1000.15087890625,-0.5867882370948792,0.25694140791893005,-0.13259294629096985
1407,1104,-0.30412450432777405,-0.6636636257171631,-1000.15087890625,-0.5867882370948792,0.25694140791893005,-0.13259294629096985
1432,1104,-0.30412450432777405,-0.6636636257171631,-1000.15087890625,-0.5867882370948792,0.25694140791893005,-0.13259294629096985
1375,1104,-0.30412450432777405,-0.6636636257171631,-1000.15087890625,-0.5867882370948792,0.25694140791893005,-0.13259294629096985
1368,1104,-0.30412450432777405,-0.6636636257171631,-1000.15087890625,-0.5867882370948792,0.25694140791893005,-0.13259294629096985
1338,1104,-0.30412450432777405,-0.6636636257171631,-1000.15087890625,-0.5867882370948792,0.25694140791893005,-0.13259294629096985
1363,1104,-0.30412450432777405,-0.6636636257171631,-1000.15087890625,-0.5867882370948792,0.25694140791893005,-0.13259294629096985
1409,1105,0.3481036126613617,0.018516793847084045,-999.97021484375,-0.13130615651607513,-0.00458945007994771,-0.1268969029188156
1389,1105,0.3481036126613617,0.018516793847084045,-999.97021484375,-0.13130615651607513,-0.00458945007994771,-0.1268969029188156
1388,1105,0.3481036126613617,0.018516793847084045,-999.97021484375,-0.13130615651607513,-0.00458945007994771,-0.1268969029188156
1410,1105,0.3481036126613617,0.018516793847084045,-999.97021484375,-0.13130615651607513,-0.00458945007994771,-0.1268969029188156
1340,1105,0.3481036126613617,0.018516793847084045,-999.97021484375,-0.13130615651607513,-0.00458945007994771,-0.1268969029188156
1320,1105,0.3481036126613617,0.018516793847084045,-999.97021484375,-0.13130615651607513,-0.00458945007994771,-0.1268969029188156
1319,1105,0.3481036126613617,0.018516793847084045,-999.97021484375,-0.13130615651607513,-0.00458945007994771,-0.1268969029188156
1341,1105,0.3481036126613617,0.018516793847084045,-999.97021484375,-0.13130615651607513,-0.00458945007994771,-0.1268969029188156
1410,1106,0.6568023562431335,0.11806750297546387,-1000.0596313476562,0.049167200922966,-0.020726393908262253,0.11826402693986893
1388,1106,0.6568023562431335,0.11806750297546387,-1000.0596313476562,0.049167200922966,-0.020726393908262253,0.11826402693986893
1387,1106,0.6568023562431335,0.11806750297546387,-1000.0596313476562,0.049167200922966,-0.020726393908262253,0.11826402693986893
1411,1106,0.6568023562431335,0.11806750297546387,-1000.0596313476562,0.049167200922966,-0.020726393908262253,0.11826402693986893
1341,1106,0.6568023562431335,0.11806750297546387,-1000.0596313476562,0.049167200922966,-0.020726393908262253,0.11826402693986893
1319,1106,0.6568023562431335,0.11806750297546387,-1000.0596313476562,0.049167200922966,-0.020726393908262253,0.11826402693986893
1318,1106,0.6568023562431335,0.11806750297546387,-1000.0596313476562,0.049167200922966,-0.020726393908262253,0.11826402693986893
1342,1106,0.6568023562431335,0.11806750297546387,-1000.0596313476562,0.049167200922966,-0.020726393908262253,0.11826402693986893
1441,1107,-0.3554193377494812,0.7698971629142761,-1000.352294921875,0.28798094391822815,-0.015118238516151905,0.7344030141830444
1429,1107,-0.3554193377494812,0.7698971629142761,-1000.352294921875,0.28798094391822815,-0.015118238516151905,0.7344030141830444
1440,1107,-0.3554193377494812,0.7698971629142761,-1000.352294921875,0.28798094391822815,-0.015118238516151905,0.7344030141830444
1434,1107,-0.3554193377494812,0.7698971629142761,-1000.352294921875,0.28798094391822815,-0.015118238516151905,0.7344030141830444
1372,1107,-0.3554193377494812,0.7698971629142761,-1000.352294921875,0.28798094391822815,-0.015118238516151905,0.7344030141830444
1360,1107,-0.3554193377494812,0.7698971629142761,-1000.352294921875,0.28798094391822815,-0.015118238516151905,0.7344030141830444
1371,1107,-0.3554193377494812,0.7698971629142761,-1000.352294921875,0.28798094391822815,-0.015118238516151905,0.7344030141830444
1365,1107,-0.3554193377494812,0.7698971629142761,-1000.352294921875,0.28798094391822815,-0.015118238516151905,0.7344030141830444
1396,1108,0.7977367639541626,0.3803442716598511,-999.9671630859375,0.30091938376426697,0.051822319626808167,-0.0970996543765068
1408,1108,0.7977367639541626,0.3803442716598511,-999.9671630859375,0.30091938376426697,0.051822319626808167,-0.0970996543765068
1416,1108,0.7977367639541626,0.3803442716598511,-999.9671630859375,0.30091938376426697,0.051822319626808167,-0.0970996543765068
1381,1108,0.7977367639541626,0.3803442716598511,-999.9671630859375,0.30091938376426697,0.051822319626808167,-0.0970996543765068
1327,1108,0.7977367639541626,0.3803442716598511,-999.9671630859375,0.30091938376426697,0.051822319626808167,-0.0970996543765068
1339,1108,0.7977367639541626,0.3803442716598511,-999.9671630859375,0.30091938376426697,0.051822319626808167,-0.0970996543765068
1347,1108,0.7977367639541626,0.3803442716598511,-999.9671630859375,0.30091938376426697,0.051822319626808167,-0.0970996543765068
1312,1108,0.7977367639541626,0.3803442716598511,-999.9671630859375,0.30091938376426697,0.051822319626808167,-0.0970996543765068
1411,1109,0.8005276918411255,0.038963619619607925,-999.9439086914062,0.06545086950063705,-0.07562858611345291,-0.0470338873565197
1387,1109,0.8005276918411255,0.038963619619607925,-999.9439086914062,0.06545086950063705,-0.07562858611345291,-0.0470338873565197
1399,1109,0.8005276918411255,0.038963619619607925,-999.9439086914062,0.06545086950063705,-0.07562858611345291,-0.0470338873565197
1419,1109,0.8005276918411255,0.038963619619607925,-999.9439086914062,0.06545086950063705,-0.07562858611345291,-0.0470338873565197
1342,1109,0.8005276918411255,0.038963619619607925,-999.9439086914062,0.06545086950063705,-0.07562858611345291,-0.0470338873565197
1318,1109,0.8005276918411255,0.038963619619607925,-999.9439086914062,0.06545086950063705,-0.07562858611345291,-0.0470338873565197
1330,1109,0.8005276918411255,0.038963619619607925,-999.9439086914062,0.06545086950063705,-0.07562858611345291,-0.0470338873565197
1350,1109,0.8005276918411255,0.038963619619607925,-999.9439086914062,0.06545086950063705,-0.07562858611345291,-0.0470338873565197
1419,1110,0.7045121788978577,0.1426495909690857,-1000.0863647460938,-0.3007831573486328,0.023669736459851265,0.11035223305225372
1399,1110,0.7045121788978577,0.1426495909690857,-1000.0863647460938,-0.3007831573486328,0.023669736459851265,0.11035223305225372
1386,1110,0.7045121788978577,0.1426495909690857,-1000.0863647460938,-0.3007831573486328,0.023669736459851265,0.11035223305225372
1412,1110,0.7045121788978577,0.1426495909690857,-1000.0863647460938,-0.3007831573486328,0.023669736459851265,0.11035223305225372
1350,1110,0.7045121788978577,0.1426495909690857,-1000.0863647460938,-0.3007831573486328,0.023669736459851265,0.11035223305225372
1330,1110,0.7045121788978577,0.1426495909690857,-1000.0863647460938,-0.3007831573486328,0.023669736459851265,0.11035223305225372
1317,1110,0.7045121788978577,0.1426495909690857,-1000.0863647460938,-0.3007831573486328,0.023669736459851265,0.11035223305225372
1343,1110,0.7045121788978577,0.1426495909690857,-1000.0863647460938,-0.3007831573486328,0.023669736459851265,0.11035223305225372
1412,1111,0.526720404624939,0.7635122537612915,-999.915771484375,-0.31131982803344727,-0.04717857018113136,-0.07676880061626434
1386,1111,0.526720404624939,0.7635122537612915,-999.915771484375,-0.31131982803344727,-0.04717857018113136,-0.07676880061626434
1385,1111,0.526720404624939,0.7635122537612915,-999.915771484375,-0.31131982803344727,-0.04717857018113136,-0.07676880061626434
1413,1111,0.526720404624939,0.7635122537612915,-999.915771484375,-0.31131982803344727,-0.04717857018113136,-0.07676880061626434
1343,1111,0.526720404624939,0.7635122537612915,-999.915771484375,-0.31131982803344727,-0.04717857018113136,-0.07676880061626434
1317,1111,0.526720404624939,0.7635122537612915,-999.915771484375,-0.31131982803344727,-0.04717857018113136,-0.07676880061626434
1316,1111,0.526720404624939,0.7635122537612915,-999.915771484375,-0.31131982803344727,-0.04717857018113136,-0.07676880061626434
1344,1111,0.526720404624939,0.7635122537612915,-999.915771484375,-0.31131982803344727,-0.04717857018113136,-0.07676880061626434
1413,1112,0.13848860561847687,0.7301433086395264,-1000.0834350585938,-0.06827329844236374,-0.012035718187689781,0.107504703104496
1385,1112,0.13848860561847687,0.7301433086395264,-1000.0834350585938,-0.06827329844236374,-0.012035718187689781,0.107504703104496
1398,1112,0.13848860561847687,0.7301433086395264,-1000.0834350585938,-0.06827329844236374,-0.012035718187689781,0.107504703104496
1418,1112,0.13848860561847687,0.7301433086395264,-1000.0834350585938,-0.06827329844236374,-0.012035718187689781,0.107504703104496
1344,1112,0.13848860561847687,0.7301433086395264,-1000.0834350585938,-0.06827329844236374,-0.012035718187689781,0.107504703104496
1316,1112,0.13848860561847687,0.7301433086395264,-1000.0834350585938,-0.06827329844236374,-0.012035718187689781,0.107504703104496
1329,1112,0.13848860561847687,0.7301433086395264,-1000.0834350585938,-0.06827329844236374,-0.012035718187689781,0.107504703104496
1349,1112,0.13848860561847687,0.7301433086395264,-1000.0834350585938,-0.06827329844236374,-0.012035718187689781,0.107504703104496
1418,1113,0.2287478744983673,0.6750755906105042,-999.9334106445312,0.03212680295109749,-0.05134931951761246,0.09252892434597015
1398,1113,0.2287478744983673,0.6750755906105042,-999.9334106445312,0.03212680295109749,-0.05134931951761246,0.09252892434597015
1384,1113,0.2287478744983673,0.6750755906105042,-999.9334106445312,0.03212680295109749,-0.05134931951761246,0.09252892434597015
1414,1113,0.2287478744983673,0.6750755906105042,-999.9334106445312,0.03212680295109749,-0.05134931951761246,0.09252892434597015
1349,1113,0.2287478744983673,0.6750755906105042,-999.9334106445312,0.03212680295109749,-0.05134931951761246,0.09252892434597015
1329,1113,0.2287478744983673,0.6750755906105042,-999.9334106445312,0.03212680295109749,-0.05134931951761246,0.09252892434597015
1315,1113,0.2287478744983673,0.6750755906105042,-999.9334106445312,0.03212680295109749,-0.05134931951761246,0.09252892434597015
1345,1113,0.2287478744983673,0.6750755906105042,-999.9334106445312,0.03212680295109749,-0.05134931951761246,0.09252892434597015
1438,1114,0.9431940317153931,1.0459092855453491,-999.9290161132812,0.41690871119499207,-0.07871517539024353,0.06489305943250656
1383,1114,0.9431940317153931,1.0459092855453491,-999.9290161132812,0.41690871119499207,-0.07871517539024353,0.06489305943250656
1382,1114,0.9431940317153931,1.0459092855453491,-999.9290161132812,0.41690871119499207,-0.07871517539024353,0.06489305943250656
1439,1114,0.9431940317153931,1.0459092855453491,-999.9290161132812,0.41690871119499207,-0.07871517539024353,0.06489305943250656
1369,1114,0.9431940317153931,1.0459092855453491,-999.9290161132812,0.41690871119499207,-0.07871517539024353,0.06489305943250656
1314,1114,0.9431940317153931,1.0459092855453491,-999.9290161132812,0.41690871119499207,-0.07871517539024353,0.06489305943250656
1313,1114,0.9431940317153931,1.0459092855453491,-999.9290161132812,0.41690871119499207,-0.07871517539024353,0.06489305943250656
1370,1114,0.9431940317153931,1.0459092855453491,-999.9290161132812,0.41690871119499207,-0.07871517539024353,0.06489305943250656
1417,1115,0.16184663772583008,0.303584486246109,-1000.0358276367188,0.2019330859184265,0.057601042091846466,0.10548107326030731
1397,1115,0.16184663772583008,0.303584486246109,-1000.0358276367188,0.2019330859184265,0.057601042091846466,0.10548107326030731
1381,1115,0.16184663772583008,0.303584486246109,-1000.0358276367188,0.2019330859184265,0.057601042091846466,0.10548107326030731
1416,1115,0.16184663772583008,0.303584486246109,-1000.0358276367188,0.2019330859184265,0.057601042091846466,0.10548107326030731
1348,1115,0.16184663772583008,0.303584486246109,-1000.0358276367188,0.2019330859184265,0.057601042091846466,0.10548107326030731
1328,1115,0.16184663772583008,0.303584486246109,-1000.0358276367188,0.2019330859184265,0.057601042091846466,0.10548107326030731
1312,1115,0.16184663772583008,0.303584486246109,-1000.0358276367188,0.2019330859184265,0.057601042091846466,0.10548107326030731
1347,1115,0.16184663772583008,0.303584486246109,-1000.0358276367188,0.2019330859184265,0.057601042091846466,0.10548107326030731
1440,1116,-1.8068593740463257,-1.8559489250183105,-1000.8408203125,-0.36730000376701355,-0.0385722778737545,-0.326426237821579
1416,1116,-1.8068593740463257,-1.8559489250183105,-1000.8408203125,-0.36730000376701355,-0.0385722778737545,-0.326426237821579
1408,1116,-1.8068593740463257,-1.8559489250183105,-1000.8408203125,-0.36730000376701355,-0.0385722778737545,-0.326426237821579
1423,1116,-1.8068593740463257,-1.8559489250183105,-1000.8408203125,-0.36730000376701355,-0.0385722778737545,-0.326426237821579
1371,1116,-1.8068593740463257,-1.8559489250183105,-1000.8408203125,-0.36730000376701355,-0.0385722778737545,-0.326426237821579
1347,1116,-1.8068593740463257,-1.8559489250183105,-1000.8408203125,-0.36730000376701355,-0.0385722778737545,-0.326426237821579
1339,1116,-1.8068593740463257,-1.8559489250183105,-1000.8408203125,-0.36730000376701355,-0.0385722778737545,-0.326426237821579
1354,1116,-1.8068593740463257,-1.8559489250183105,-1000.8408203125,-0.36730000376701355,-0.0385722778737545,-0.326426237821579
1439,1117,-0.8650466799736023,-1.7208082675933838,-1000.4378051757812,-0.21361662447452545,-0.09609317034482956,-0.19118845462799072
1417,1117,-0.8650466799736023,-1.7208082675933838,-1000.4378051757812,-0.21361662447452545,-0.09609317034482956,-0.19118845462799072
1429,1117,-0.8650466799736023,-1.7208082675933838,-1000.4378051757812,-0.21361662447452545,-0.09609317034482956,-0.19118845462799072
1415,1117,-0.8650466799736023,-1.7208082675933838,-1000.4378051757812,-0.21361662447452545,-0.09609317034482956,-0.19118845462799072
1370,1117,-0.8650466799736023,-1.7208082675933838,-1000.4378051757812,-0.21361662447452545,-0.09609317034482956,-0.19118845462799072
1348,1117,-0.8650466799736023,-1.7208082675933838,-1000.4378051757812,-0.21361662447452545,-0.09609317034482956,-0.19118845462799072
1360,1117,-0.8650466799736023,-1.7208082675933838,-1000.4378051757812,-0.21361662447452545,-0.09609317034482956,-0.19118845462799072
1346,1117,-0.8650466799736023,-1.7208082675933838,-1000.4378051757812,-0.21361662447452545,-0.09609317034482956,-0.19118845462799072
1414,1118,0.26036250591278076,0.5776228904724121,-1000.0367431640625,0.3430121839046478,0.04533199965953827,0.013218528591096401
1384,1118,0.26036250591278076,0.5776228904724121,-1000.0367431640625,0.3430121839046478,0.04533199965953827,0.013218528591096401
1383,1118,0.26036250591278076,0.5776228904724121,-1000.0367431640625,0.3430121839046478,0.04533199965953827,0.013218528591096401
1438,1118,0.26036250591278076,0.5776228904724121,-1000.0367431640625,0.3430121839046478,0.04533199965953827,0.013218528591096401
1345,1118,0.26036250591278076,0.5776228904724121,-1000.0367431640625,0.3430121839046478,0.04533199965953827,0.013218528591096401
1315,1118,0.26036250591278076,0.5776228904724121,-1000.0367431640625,0.3430121839046478,0.04533199965953827,0.013218528591096401
1314,1118,0.26036250591278076,0.5776228904724121,-1000.0367431640625,0.3430121839046478,0.04533199965953827,0.013218528591096401
1369,1118,0.26036250591278076,0.5776228904724121,-1000.0367431640625,0.3430121839046478,0.04533199965953827,0.013218528591096401
1423,1119,-0.4330509305000305,1.023213505744934,-999.05859375,0.04892769828438759,-0.5224528908729553,0.5675089955329895
1408,1119,-0.4330509305000305,1.023213505744934,-999.05859375,0.04892769828438759,-0.5224528908729553,0.5675089955329895
1405,1119,-0.4330509305000305,1.023213505744934,-999.05859375,0.04892769828438759,-0.5224528908729553,0.5675089955329895
1449,1119,-0.4330509305000305,1.023213505744934,-999.05859375,0.04892769828438759,-0.5224528908729553,0.5675089955329895
1354,1119,-0.4330509305000305,1.023213505744934,-999.05859375,0.04892769828438759,-0.5224528908729553,0.5675089955329895
1339,1119,-0.4330509305000305,1.023213505744934,-999.05859375,0.04892769828438759,-0.5224528908729553,0.5675089955329895
1336,1119,-0.4330509305000305,1.023213505744934,-999.05859375,0.04892769828438759,-0.5224528908729553,0.5675089955329895
1380,1119,-0.4330509305000305,1.023213505744934,-999.05859375,0.04892769828438759,-0.5224528908729553,0.5675089955329895
1434,1120,0.018795400857925415,-0.3104263246059418,-1000.111572265625,-0.6067227125167847,0.08265151083469391,0.08025087416172028
1449,1120,0.018795400857925415,-0.3104263246059418,-1000.111572265625,-0.6067227125167847,0.08265151083469391,0.08025087416172028
1425,1120,0.018795400857925415,-0.3104263246059418,-1000.111572265625,-0.6067227125167847,0.08265151083469391,0.08025087416172028
1433,1120,0.018795400857925415,-0.3104263246059418,-1000.111572265625,-0.6067227125167847,0.08265151083469391,0.08025087416172028
1365,1120,0.018795400857925415,-0.3104263246059418,-1000.111572265625,-0.6067227125167847,0.08265151083469391,0.08025087416172028
1380,1120,0.018795400857925415,-0.3104263246059418,-1000.111572265625,-0.6067227125167847,0.08265151083469391,0.08025087416172028
1356,1120,0.018795400857925415,-0.3104263246059418,-1000.111572265625,-0.6067227125167847,0.08265151083469391,0.08025087416172028
1364,1120,0.018795400857925415,-0.3104263246059418,-1000.111572265625,-0.6067227125167847,0.08265151083469391,0.08025087416172028
1404,1121,-0.06840849667787552,-0.8386083245277405,-999.3027954101562,0.2704876661300659,-0.2769503593444824,0.23590107262134552
1421,1121,-0.06840849667787552,-0.8386083245277405,-999.3027954101562,0.2704876661300659,-0.2769503593444824,0.23590107262134552
1443,1121,-0.06840849667787552,-0.8386083245277405,-999.3027954101562,0.2704876661300659,-0.2769503593444824,0.23590107262134552
1428,1121,-0.06840849667787552,-0.8386083245277405,-999.3027954101562,0.2704876661300659,-0.2769503593444824,0.23590107262134552
1335,1121,-0.06840849667787552,-0.8386083245277405,-999.3027954101562,0.2704876661300659,-0.2769503593444824,0.23590107262134552
1352,1121,-0.06840849667787552,-0.8386083245277405,-999.3027954101562,0.2704876661300659,-0.2769503593444824,0.23590107262134552
1374,1121,-0.06840849667787552,-0.8386083245277405,-999.3027954101562,0.2704876661300659,-0.2769503593444824,0.23590107262134552
1359,1121,-0.06840849667787552,-0.8386083245277405,-999.3027954101562,0.2704876661300659,-0.2769503593444824,0.23590107262134552
1428,1122,-0.37024351954460144,1.4362107515335083,-1000.029052734375,-0.004884086549282074,0.10268180072307587,-0.41665777564048767
1443,1122,-0.37024351954460144,1.4362107515335083,-1000.029052734375,-0.004884086549282074,0.10268180072307587,-0.41665777564048767
1427,1122,-0.37024351954460144,1.4362107515335083,-1000.029052734375,-0.004884086549282074,0.10268180072307587,-0.41665777564048767
1433,1122,-0.37024351954460144,1.4362107515335083,-1000.029052734375,-0.004884086549282074,0.10268180072307587,-0.41665777564048767
1359,1122,-0.37024351954460144,1.4362107515335083,-1000.029052734375,-0.004884086549282074,0.10268180072307587,-0.41665777564048767
1374,1122,-0.37024351954460144,1.4362107515335083,-1000.029052734375,-0.004884086549282074,0.10268180072307587,-0.41665777564048767
1358,1122,-0.37024351954460144,1.4362107515335083,-1000.029052734375,-0.004884086549282074,0.10268180072307587,-0.41665777564048767
1364,1122,-0.37024351954460144,1.4362107515335083,-1000.029052734375,-0.004884086549282074,0.10268180072307587,-0.41665777564048767
1430,1123,-0.7127972841262817,-1.3085968494415283,-1000.1915283203125,-0.2507534325122833,0.051640186458826065,-0.3751545548439026
1418,1123,-0.7127972841262817,-1.3085968494415283,-1000.1915283203125,-0.2507534325122833,0.051640186458826065,-0.3751545548439026
1414,1123,-0.7127972841262817,-1.3085968494415283,-1000.1915283203125,-0.2507534325122833,0.051640186458826065,-0.3751545548439026
1438,1123,-0.7127972841262817,-1.3085968494415283,-1000.1915283203125,-0.2507534325122833,0.051640186458826065,-0.3751545548439026
1361,1123,-0.7127972841262817,-1.3085968494415283,-1000.1915283203125,-0.2507534325122833,0.051640186458826065,-0.3751545548439026
1349,1123,-0.7127972841262817,-1.3085968494415283,-1000.1915283203125,-0.2507534325122833,0.051640186458826065,-0.3751545548439026
1345,1123,-0.7127972841262817,-1.3085968494415283,-1000.1915283203125,-0.2507534325122833,0.051640186458826065,-0.3751545548439026
1369,1123,-0.7127972841262817,-1.3085968494415283,-1000.1915283203125,-0.2507534325122833,0.051640186458826065,-0.3751545548439026
1428,1124,1.0052533149719238,1.367641806602478,-999.7260131835938,-0.25832104682922363,0.3587823212146759,0.12559065222740173
1433,1124,1.0052533149719238,1.367641806602478,-999.7260131835938,-0.25832104682922363,0.3587823212146759,0.12559065222740173
1425,1124,1.0052533149719238,1.367641806602478,-999.7260131835938,-0.25832104682922363,0.3587823212146759,0.12559065222740173
1442,1124,1.0052533149719238,1.367641806602478,-999.7260131835938,-0.25832104682922363,0.3587823212146759,0.12559065222740173
1359,1124,1.0052533149719238,1.367641806602478,-999.7260131835938,-0.25832104682922363,0.3587823212146759,0.12559065222740173
1364,1124,1.0052533149719238,1.367641806602478,-999.7260131835938,-0.25832104682922363,0.3587823212146759,0.12559065222740173
1356,1124,1.0052533149719238,1.367641806602478,-999.7260131835938,-0.25832104682922363,0.3587823212146759,0.12559065222740173
1373,1124,1.0052533149719238,1.367641806602478,-999.7260131835938,-0.25832104682922363,0.3587823212146759,0.12559065222740173
1406,1125,-0.5138754844665527,-1.9123625755310059,-999.896240234375,0.2043335735797882,-0.06100582703948021,0.13076654076576233
1437,1125,-0.5138754844665527,-1.9123625755310059,-999.896240234375,0.2043335735797882,-0.06100582703948021,0.13076654076576233
1444,1125,-0.5138754844665527,-1.9123625755310059,-999.896240234375,0.2043335735797882,-0.06100582703948021,0.13076654076576233
1427,1125,-0.5138754844665527,-1.9123625755310059,-999.896240234375,0.2043335735797882,-0.06100582703948021,0.13076654076576233
1337,1125,-0.5138754844665527,-1.9123625755310059,-999.896240234375,0.2043335735797882,-0.06100582703948021,0.13076654076576233
1368,1125,-0.5138754844665527,-1.9123625755310059,-999.896240234375,0.2043335735797882,-0.06100582703948021,0.13076654076576233
1375,1125,-0.5138754844665527,-1.9123625755310059,-999.896240234375,0.2043335735797882,-0.06100582703948021,0.13076654076576233
1358,1125,-0.5138754844665527,-1.9123625755310059,-999.896240234375,0.2043335735797882,-0.06100582703948021,0.13076654076576233
1448,1126,0.8686429858207703,1.0531847476959229,-1000.0855712890625,0.22619590163230896,-0.4229303300380707,0.38929906487464905
1430,1126,0.8686429858207703,1.0531847476959229,-1000.0855712890625,0.22619590163230896,-0.4229303300380707,0.38929906487464905
1415,1126,0.8686429858207703,1.0531847476959229,-1000.0855712890625,0.22619590163230896,-0.4229303300380707,0.38929906487464905
1436,1126,0.8686429858207703,1.0531847476959229,-1000.0855712890625,0.22619590163230896,-0.4229303300380707,0.38929906487464905
1379,1126,0.8686429858207703,1.0531847476959229,-1000.0855712890625,0.22619590163230896,-0.4229303300380707,0.38929906487464905
1361,1126,0.8686429858207703,1.0531847476959229,-1000.0855712890625,0.22619590163230896,-0.4229303300380707,0.38929906487464905
1346,1126,0.8686429858207703,1.0531847476959229,-1000.0855712890625,0.22619590163230896,-0.4229303300380707,0.38929906487464905
1367,1126,0.8686429858207703,1.0531847476959229,-1000.0855712890625,0.22619590163230896,-0.4229303300380707,0.38929906487464905
1424,1127,1.9275786876678467,-0.2749215066432953,-999.867431640625,0.10534251481294632,-0.4217533767223358,-0.11231895536184311
1446,1127,1.9275786876678467,-0.2749215066432953,-999.867431640625,0.10534251481294632,-0.4217533767223358,-0.11231895536184311
1431,1127,1.9275786876678467,-0.2749215066432953,-999.867431640625,0.10534251481294632,-0.4217533767223358,-0.11231895536184311
1435,1127,1.9275786876678467,-0.2749215066432953,-999.867431640625,0.10534251481294632,-0.4217533767223358,-0.11231895536184311
1355,1127,1.9275786876678467,-0.2749215066432953,-999.867431640625,0.10534251481294632,-0.4217533767223358,-0.11231895536184311
1377,1127,1.9275786876678467,-0.2749215066432953,-999.867431640625,0.10534251481294632,-0.4217533767223358,-0.11231895536184311
1362,1127,1.9275786876678467,-0.2749215066432953,-999.867431640625,0.10534251481294632,-0.4217533767223358,-0.11231895536184311
1366,1127,1.9275786876678467,-0.2749215066432953,-999.867431640625,0.10534251481294632,-0.4217533767223358,-0.11231895536184311
1447,1128,0.05494873970746994,0.32862070202827454,-999.544921875,0.9866677522659302,0.1712697595357895,-0.10578295588493347
1419,1128,0.05494873970746994,0.32862070202827454,-999.544921875,0.9866677522659302,0.1712697595357895,-0.10578295588493347
1412,1128,0.05494873970746994,0.32862070202827454,-999.544921875,0.9866677522659302,0.1712697595357895,-0.10578295588493347
1426,1128,0.05494873970746994,0.32862070202827454,-999.544921875,0.9866677522659302,0.1712697595357895,-0.10578295588493347
1378,1128,0.05494873970746994,0.32862070202827454,-999.544921875,0.9866677522659302,0.1712697595357895,-0.10578295588493347
1350,1128,0.05494873970746994,0.32862070202827454,-999.544921875,0.9866677522659302,0.1712697595357895,-0.10578295588493347
1343,1128,0.05494873970746994,0.32862070202827454,-999.544921875,0.9866677522659302,0.1712697595357895,-0.10578295588493347
1357,1128,0.05494873970746994,0.32862070202827454,-999.544921875,0.9866677522659302,0.1712697595357895,-0.10578295588493347
1436,1129,-0.3769285976886749,0.4823850691318512,-999.9219360351562,-0.5459708571434021,0.17841653525829315,-0.18905147910118103
1435,1129,-0.3769285976886749,0.4823850691318512,-999.9219360351562,-0.5459708571434021,0.17841653525829315,-0.18905147910118103
1426,1129,-0.3769285976886749,0.4823850691318512,-999.9219360351562,-0.5459708571434021,0.17841653525829315,-0.18905147910118103
1448,1129,-0.3769285976886749,0.4823850691318512,-999.9219360351562,-0.5459708571434021,0.17841653525829315,-0.18905147910118103
1367,1129,-0.3769285976886749,0.4823850691318512,-999.9219360351562,-0.5459708571434021,0.17841653525829315,-0.18905147910118103
1366,1129,-0.3769285976886749,0.4823850691318512,-999.9219360351562,-0.5459708571434021,0.17841653525829315,-0.18905147910118103
1357,1129,-0.3769285976886749,0.4823850691318512,-999.9219360351562,-0.5459708571434021,0.17841653525829315,-0.18905147910118103
1379,1129,-0.3769285976886749,0.4823850691318512,-999.9219360351562,-0.5459708571434021,0.17841653525829315,-0.18905147910118103
1436,1130,-0.2207861840724945,-1.082683801651001,-1000.0629272460938,0.04171222075819969,-0.8707553148269653,-0.1436881721019745
1441,1130,-0.2207861840724945,-1.082683801651001,-1000.0629272460938,0.04171222075819969,-0.8707553148269653,-0.1436881721019745
1434,1130,-0.2207861840724945,-1.082683801651001,-1000.0629272460938,0.04171222075819969,-0.8707553148269653,-0.1436881721019745
1433,1130,-0.2207861840724945,-1.082683801651001,-1000.0629272460938,0.04171222075819969,-0.8707553148269653,-0.1436881721019745
1367,1130,-0.2207861840724945,-1.082683801651001,-1000.0629272460938,0.04171222075819969,-0.8707553148269653,-0.1436881721019745
1372,1130,-0.2207861840724945,-1.082683801651001,-1000.0629272460938,0.04171222075819969,-0.8707553148269653,-0.1436881721019745
1365,1130,-0.2207861840724945,-1.082683801651001,-1000.0629272460938,0.04171222075819969,-0.8707553148269653,-0.1436881721019745
1364,1130,-0.2207861840724945,-1.082683801651001,-1000.0629272460938,0.04171222075819969,-0.8707553148269653,-0.1436881721019745
1426,1131,1.3300708532333374,0.8629433512687683,-1000.04052734375,-0.31657201051712036,-0.35133814811706543,0.5266987085342407
1435,1131,1.3300708532333374,0.8629433512687683,-1000.04052734375,-0.31657201051712036,-0.35133814811706543,0.5266987085342407
1431,1131,1.3300708532333374,0.8629433512687683,-1000.04052734375,-0.31657201051712036,-0.35133814811706543,0.5266987085342407
1447,1131,1.3300708532333374,0.8629433512687683,-1000.04052734375,-0.31657201051712036,-0.35133814811706543,0.5266987085342407
1357,1131,1.3300708532333374,0.8629433512687683,-1000.04052734375,-0.31657201051712036,-0.35133814811706543,0.5266987085342407
1366,1131,1.3300708532333374,0.8629433512687683,-1000.04052734375,-0.31657201051712036,-0.35133814811706543,0.5266987085342407
1362,1131,1.3300708532333374,0.8629433512687683,-1000.04052734375,-0.31657201051712036,-0.35133814811706543,0.5266987085342407
1378,1131,1.3300708532333374,0.8629433512687683,-1000.04052734375,-0.31657201051712036,-0.35133814811706543,0.5266987085342407
1437,1132,0.27664878964424133,0.8549114465713501,-1000.0237426757812,0.30075106024742126,-0.05282830819487572,0.041716206818819046
1391,1132,0.27664878964424133,0.8549114465713501,-1000.0237426757812,0.30075106024742126,-0.05282830819487572,0.041716206818819046
1390,1132,0.27664878964424133,0.8549114465713501,-1000.0237426757812,0.30075106024742126,-0.05282830819487572,0.041716206818819046
1407,1132,0.27664878964424133,0.8549114465713501,-1000.0237426757812,0.30075106024742126,-0.05282830819487572,0.041716206818819046
1368,1132,0.27664878964424133,0.8549114465713501,-1000.0237426757812,0.30075106024742126,-0.05282830819487572,0.041716206818819046
1322,1132,0.27664878964424133,0.8549114465713501,-1000.0237426757812,0.30075106024742126,-0.05282830819487572,0.041716206818819046
1321,1132,0.27664878964424133,0.8549114465713501,-1000.0237426757812,0.30075106024742126,-0.05282830819487572,0.041716206818819046
1338,1132,0.27664878964424133,0.8549114465713501,-1000.0237426757812,0.30075106024742126,-0.05282830819487572,0.041716206818819046
1439,1133,0.48947668075561523,0.8573886156082153,-999.9789428710938,0.42224574089050293,0.0919656828045845,-0.07910105586051941
1382,1133,0.48947668075561523,0.8573886156082153,-999.9789428710938,0.42224574089050293,0.0919656828045845,-0.07910105586051941
1397,1133,0.48947668075561523,0.8573886156082153,-999.9789428710938,0.42224574089050293,0.0919656828045845,-0.07910105586051941
1417,1133,0.48947668075561523,0.8573886156082153,-999.9789428710938,0.42224574089050293,0.0919656828045845,-0.07910105586051941
1370,1133,0.48947668075561523,0.8573886156082153,-999.9789428710938,0.42224574089050293,0.0919656828045845,-0.07910105586051941
1313,1133,0.48947668075561523,0.8573886156082153,-999.9789428710938,0.42224574089050293,0.0919656828045845,-0.07910105586051941
1328,1133,0.48947668075561523,0.8573886156082153,-999.9789428710938,0.42224574089050293,0.0919656828045845,-0.07910105586051941
1348,1133,0.48947668075561523,0.8573886156082153,-999.9789428710938,0.42224574089050293,0.0919656828045845,-0.07910105586051941
1416,1134,0.3341309130191803,0.36756107211112976,-999.4203491210938,-0.43538209795951843,-0.4581318497657776,0.17154750227928162
1440,1134,0.3341309130191803,0.36756107211112976,-999.4203491210938,-0.43538209795951843,-0.4581318497657776,0.17154750227928162
1429,1134,0.3341309130191803,0.36756107211112976,-999.4203491210938,-0.43538209795951843,-0.4581318497657776,0.17154750227928162
1417,1134,0.3341309130191803,0.36756107211112976,-999.4203491210938,-0.43538209795951843,-0.4581318497657776,0.17154750227928162
1347,1134,0.3341309130191803,0.36756107211112976,-999.4203491210938,-0.43538209795951843,-0.4581318497657776,0.17154750227928162
1371,1134,0.3341309130191803,0.36756107211112976,-999.4203491210938,-0.43538209795951843,-0.4581318497657776,0.17154750227928162
1360,1134,0.3341309130191803,0.36756107211112976,-999.4203491210938,-0.43538209795951843,-0.4581318497657776,0.17154750227928162
1348,1134,0.3341309130191803,0.36756107211112976,-999.4203491210938,-0.43538209795951843,-0.4581318497657776,0.17154750227928162
1440,1135,1.6086382865905762,0.9218651056289673,-999.6962280273438,0.4303855299949646,1.0035476684570312,-0.4913708567619324
1423,1135,1.6086382865905762,0.9218651056289673,-999.6962280273438,0.4303855299949646,1.0035476684570312,-0.4913708567619324
1449,1135,1.6086382865905762,0.9218651056289673,-999.6962280273438,0.4303855299949646,1.0035476684570312,-0.4913708567619324
1434,1135,1.6086382865905762,0.9218651056289673,-999.6962280273438,0.4303855299949646,1.0035476684570312,-0.4913708567619324
1371,1135,1.6086382865905762,0.9218651056289673,-999.6962280273438,0.4303855299949646,1.0035476684570312,-0.4913708567619324
1354,1135,1.6086382865905762,0.9218651056289673,-999.6962280273438,0.4303855299949646,1.0035476684570312,-0.4913708567619324
1380,1135,1.6086382865905762,0.9218651056289673,-999.6962280273438,0.4303855299949646,1.0035476684570312,-0.4913708567619324
1365,1135,1.6086382865905762,0.9218651056289673,-999.6962280273438,0.4303855299949646,1.0035476684570312,-0.4913708567619324
1442,1136,-0.684074878692627,-2.1612303256988525,-1000.998291015625,-0.039035722613334656,-0.14771202206611633,-0.2112978994846344
1403,1136,-0.684074878692627,-2.1612303256988525,-1000.998291015625,-0.039035722613334656,-0.14771202206611633,-0.2112978994846344
1404,1136,-0.684074878692627,-2.1612303256988525,-1000.998291015625,-0.039035722613334656,-0.14771202206611633,-0.2112978994846344
1428,1136,-0.684074878692627,-2.1612303256988525,-1000.998291015625,-0.039035722613334656,-0.14771202206611633,-0.2112978994846344
1373,1136,-0.684074878692627,-2.1612303256988525,-1000.998291015625,-0.039035722613334656,-0.14771202206611633,-0.2112978994846344
1334,1136,-0.684074878692627,-2.1612303256988525,-1000.998291015625,-0.039035722613334656,-0.14771202206611633,-0.2112978994846344
1335,1136,-0.684074878692627,-2.1612303256988525,-1000.998291015625,-0.039035722613334656,-0.14771202206611633,-0.2112978994846344
1359,1136,-0.684074878692627,-2.1612303256988525,-1000.998291015625,-0.039035722613334656,-0.14771202206611633,-0.2112978994846344
1443,1137,-0.30176490545272827,-1.4756293296813965,-1000.4231567382812,-0.20083202421665192,0.2419745773077011,0.10760852694511414
1421,1137,-0.30176490545272827,-1.4756293296813965,-1000.4231567382812,-0.20083202421665192,0.2419745773077011,0.10760852694511414
1406,1137,-0.30176490545272827,-1.4756293296813965,-1000.4231567382812,-0.20083202421665192,0.2419745773077011,0.10760852694511414
1427,1137,-0.30176490545272827,-1.4756293296813965,-1000.4231567382812,-0.20083202421665192,0.2419745773077011,0.10760852694511414
1374,1137,-0.30176490545272827,-1.4756293296813965,-1000.4231567382812,-0.20083202421665192,0.2419745773077011,0.10760852694511414
1352,1137,-0.30176490545272827,-1.4756293296813965,-1000.4231567382812,-0.20083202421665192,0.2419745773077011,0.10760852694511414
1337,1137,-0.30176490545272827,-1.4756293296813965,-1000.4231567382812,-0.20083202421665192,0.2419745773077011,0.10760852694511414
1358,1137,-0.30176490545272827,-1.4756293296813965,-1000.4231567382812,-0.20083202421665192,0.2419745773077011,0.10760852694511414
1445,1138,-0.7228948473930359,0.35575780272483826,-999.904541015625,0.03894912078976631,0.5548299551010132,-0.0694400742650032
1420,1138,-0.7228948473930359,0.35575780272483826,-999.904541015625,0.03894912078976631,0.5548299551010132,-0.0694400742650032
1409,1138,-0.7228948473930359,0.35575780272483826,-999.904541015625,0.03894912078976631,0.5548299551010132,-0.0694400742650032
1424,1138,-0.7228948473930359,0.35575780272483826,-999.904541015625,0.03894912078976631,0.5548299551010132,-0.0694400742650032
1376,1138,-0.7228948473930359,0.35575780272483826,-999.904541015625,0.03894912078976631,0.5548299551010132,-0.0694400742650032
1351,1138,-0.7228948473930359,0.35575780272483826,-999.904541015625,0.03894912078976631,0.5548299551010132,-0.0694400742650032
1340,1138,-0.7228948473930359,0.35575780272483826,-999.904541015625,0.03894912078976631,0.5548299551010132,-0.0694400742650032
1355,1138,-0.7228948473930359,0.35575780272483826,-999.904541015625,0.03894912078976631,0.5548299551010132,-0.0694400742650032
1446,1139,-0.938734769821167,0.3203825056552887,-999.5933837890625,0.36801180243492126,0.43441280722618103,-0.21014632284641266
1410,1139,-0.938734769821167,0.3203825056552887,-999.5933837890625,0.36801180243492126,0.43441280722618103,-0.21014632284641266
1411,1139,-0.938734769821167,0.3203825056552887,-999.5933837890625,0.36801180243492126,0.43441280722618103,-0.21014632284641266
1431,1139,-0.938734769821167,0.3203825056552887,-999.5933837890625,0.36801180243492126,0.43441280722618103,-0.21014632284641266
1377,1139,-0.938734769821167,0.3203825056552887,-999.5933837890625,0.36801180243492126,0.43441280722618103,-0.21014632284641266
1341,1139,-0.938734769821167,0.3203825056552887,-999.5933837890625,0.36801180243492126,0.43441280722618103,-0.21014632284641266
1342,1139,-0.938734769821167,0.3203825056552887,-999.5933837890625,0.36801180243492126,0.43441280722618103,-0.21014632284641266
1362,1139,-0.938734769821167,0.3203825056552887,-999.5933837890625,0.36801180243492126,0.43441280722618103,-0.21014632284641266
1448,1140,0.4093722701072693,-0.23611782491207123,-999.7312622070312,0.35648804903030396,0.17573603987693787,-0.13097476959228516
1413,1140,0.4093722701072693,-0.23611782491207123,-999.7312622070312,0.35648804903030396,0.17573603987693787,-0.13097476959228516
1418,1140,0.4093722701072693,-0.23611782491207123,-999.7312622070312,0.35648804903030396,0.17573603987693787,-0.13097476959228516
1430,1140,0.4093722701072693,-0.23611782491207123,-999.7312622070312,0.35648804903030396,0.17573603987693787,-0.13097476959228516
1379,1140,0.4093722701072693,-0.23611782491207123,-999.7312622070312,0.35648804903030396,0.17573603987693787,-0.13097476959228516
1344,1140,0.4093722701072693,-0.23611782491207123,-999.7312622070312,0.35648804903030396,0.17573603987693787,-0.13097476959228516
1349,1140,0.4093722701072693,-0.23611782491207123,-999.7312622070312,0.35648804903030396,0.17573603987693787,-0.13097476959228516
1361,1140,0.4093722701072693,-0.23611782491207123,-999.7312622070312,0.35648804903030396,0.17573603987693787,-0.13097476959228516
1473,1141,-0.1254069060087204,-0.8533274531364441,-999.9859008789062,0.023907944560050964,-0.09844309836626053,-0.030840899795293808
1462,1141,-0.1254069060087204,-0.8533274531364441,-999.9859008789062,0.023907944560050964,-0.09844309836626053,-0.030840899795293808
1461,1141,-0.1254069060087204,-0.8533274531364441,-999.9859008789062,0.023907944560050964,-0.09844309836626053,-0.030840899795293808
1490,1141,-0.1254069060087204,-0.8533274531364441,-999.9859008789062,0.023907944560050964,-0.09844309836626053,-0.030840899795293808
1404,1141,-0.1254069060087204,-0.8533274531364441,-999.9859008789062,0.023907944560050964,-0.09844309836626053,-0.030840899795293808
1393,1141,-0.1254069060087204,-0.8533274531364441,-999.9859008789062,0.023907944560050964,-0.09844309836626053,-0.030840899795293808
1392,1141,-0.1254069060087204,-0.8533274531364441,-999.9859008789062,0.023907944560050964,-0.09844309836626053,-0.030840899795293808
1421,1141,-0.1254069060087204,-0.8533274531364441,-999.9859008789062,0.023907944560050964,-0.09844309836626053,-0.030840899795293808
1490,1142,-0.286628395318985,-1.061948537826538,-999.952880859375,0.06997666507959366,0.07528635859489441,0.08183223754167557
1461,1142,-0.286628395318985,-1.061948537826538,-999.952880859375,0.06997666507959366,0.07528635859489441,0.08183223754167557
1470,1142,-0.286628395318985,-1.061948537826538,-999.952880859375,0.06997666507959366,0.07528635859489441,0.08183223754167557
1475,1142,-0.286628395318985,-1.061948537826538,-999.952880859375,0.06997666507959366,0.07528635859489441,0.08183223754167557
1421,1142,-0.286628395318985,-1.061948537826538,-999.952880859375,0.06997666507959366,0.07528635859489441,0.08183223754167557
1392,1142,-0.286628395318985,-1.061948537826538,-999.952880859375,0.06997666507959366,0.07528635859489441,0.08183223754167557
1401,1142,-0.286628395318985,-1.061948537826538,-999.952880859375,0.06997666507959366,0.07528635859489441,0.08183223754167557
1406,1142,-0.286628395318985,-1.061948537826538,-999.952880859375,0.06997666507959366,0.07528635859489441,0.08183223754167557
1471,1143,-0.4126940071582794,-0.418453574180603,-1000.0189208984375,0.21481305360794067,-0.08318988978862762,0.12351793795824051
1491,1143,-0.4126940071582794,-0.418453574180603,-1000.0189208984375,0.21481305360794067,-0.08318988978862762,0.12351793795824051
1474,1143,-0.4126940071582794,-0.418453574180603,-1000.0189208984375,0.21481305360794067,-0.08318988978862762,0.12351793795824051
1464,1143,-0.4126940071582794,-0.418453574180603,-1000.0189208984375,0.21481305360794067,-0.08318988978862762,0.12351793795824051
1402,1143,-0.4126940071582794,-0.418453574180603,-1000.0189208984375,0.21481305360794067,-0.08318988978862762,0.12351793795824051
1422,1143,-0.4126940071582794,-0.418453574180603,-1000.0189208984375,0.21481305360794067,-0.08318988978862762,0.12351793795824051
1405,1143,-0.4126940071582794,-0.418453574180603,-1000.0189208984375,0.21481305360794067,-0.08318988978862762,0.12351793795824051
1395,1143,-0.4126940071582794,-0.418453574180603,-1000.0189208984375,0.21481305360794067,-0.08318988978862762,0.12351793795824051
1462,1144,-0.29606375098228455,-1.2081198692321777,-1000.0679321289062,0.12410597503185272,-0.004770443309098482,0.0533524751663208
1473,1144,-0.29606375098228455,-1.2081198692321777,-1000.0679321289062,0.12410597503185272,-0.004770443309098482,0.0533524751663208
1472,1144,-0.29606375098228455,-1.2081198692321777,-1000.0679321289062,0.12410597503185272,-0.004770443309098482,0.0533524751663208
1463,1144,-0.29606375098228455,-1.2081198692321777,-1000.0679321289062,0.12410597503185272,-0.004770443309098482,0.0533524751663208
1393,1144,-0.29606375098228455,-1.2081198692321777,-1000.0679321289062,0.12410597503185272,-0.004770443309098482,0.0533524751663208
1404,1144,-0.29606375098228455,-1.2081198692321777,-1000.0679321289062,0.12410597503185272,-0.004770443309098482,0.0533524751663208
1403,1144,-0.29606375098228455,-1.2081198692321777,-1000.0679321289062,0.12410597503185272,-0.004770443309098482,0.0533524751663208
1394,1144,-0.29606375098228455,-1.2081198692321777,-1000.0679321289062,0.12410597503185272,-0.004770443309098482,0.0533524751663208
1501,1145,-0.5976642966270447,-0.5285711884498596,-1000.0413208007812,-0.4050048589706421,0.30063825845718384,0.5304399728775024
1514,1145,-0.5976642966270447,-0.5285711884498596,-1000.0413208007812,-0.4050048589706421,0.30063825845718384,0.5304399728775024
1493,1145,-0.5976642966270447,-0.5285711884498596,-1000.0413208007812,-0.4050048589706421,0.30063825845718384,0.5304399728775024
1504,1145,-0.5976642966270447,-0.5285711884498596,-1000.0413208007812,-0.4050048589706421,0.30063825845718384,0.5304399728775024
1432,1145,-0.5976642966270447,-0.5285711884498596,-1000.0413208007812,-0.4050048589706421,0.30063825845718384,0.5304399728775024
1445,1145,-0.5976642966270447,-0.5285711884498596,-1000.0413208007812,-0.4050048589706421,0.30063825845718384,0.5304399728775024
1424,1145,-0.5976642966270447,-0.5285711884498596,-1000.0413208007812,-0.4050048589706421,0.30063825845718384,0.5304399728775024
1435,1145,-0.5976642966270447,-0.5285711884498596,-1000.0413208007812,-0.4050048589706421,0.30063825845718384,0.5304399728775024
1517,1146,1.350677251815796,1.6929538249969482,-999.587890625,-0.10407154262065887,0.03966522216796875,0.06824510544538498
1495,1146,1.350677251815796,1.6929538249969482,-999.587890625,-0.10407154262065887,0.03966522216796875,0.06824510544538498
1481,1146,1.350677251815796,1.6929538249969482,-999.587890625,-0.10407154262065887,0.03966522216796875,0.06824510544538498
1482,1146,1.350677251815796,1.6929538249969482,-999.587890625,-0.10407154262065887,0.03966522216796875,0.06824510544538498
1448,1146,1.350677251815796,1.6929538249969482,-999.587890625,-0.10407154262065887,0.03966522216796875,0.06824510544538498
1426,1146,1.350677251815796,1.6929538249969482,-999.587890625,-0.10407154262065887,0.03966522216796875,0.06824510544538498
1412,1146,1.350677251815796,1.6929538249969482,-999.587890625,-0.10407154262065887,0.03966522216796875,0.06824510544538498
1413,1146,1.350677251815796,1.6929538249969482,-999.587890625,-0.10407154262065887,0.03966522216796875,0.06824510544538498
1505,1147,0.8047575950622559,1.044847011566162,-999.7955322265625,-0.32036280632019043,-0.4671543538570404,-0.20133742690086365
1502,1147,0.8047575950622559,1.044847011566162,-999.7955322265625,-0.32036280632019043,-0.4671543538570404,-0.20133742690086365
1501,1147,0.8047575950622559,1.044847011566162,-999.7955322265625,-0.32036280632019043,-0.4671543538570404,-0.20133742690086365
1504,1147,0.8047575950622559,1.044847011566162,-999.7955322265625,-0.32036280632019043,-0.4671543538570404,-0.20133742690086365
1436,1147,0.8047575950622559,1.044847011566162,-999.7955322265625,-0.32036280632019043,-0.4671543538570404,-0.20133742690086365
1433,1147,0.8047575950622559,1.044847011566162,-999.7955322265625,-0.32036280632019043,-0.4671543538570404,-0.20133742690086365
1432,1147,0.8047575950622559,1.044847011566162,-999.7955322265625,-0.32036280632019043,-0.4671543538570404,-0.20133742690086365
1435,1147,0.8047575950622559,1.044847011566162,-999.7955322265625,-0.32036280632019043,-0.4671543538570404,-0.20133742690086365
1496,1148,-1.0247305631637573,-1.8303152322769165,-1000.2255859375,-0.2055255025625229,0.370278924703598,-0.0020799043122678995
1513,1148,-1.0247305631637573,-1.8303152322769165,-1000.2255859375,-0.2055255025625229,0.370278924703598,-0.0020799043122678995
1501,1148,-1.0247305631637573,-1.8303152322769165,-1000.2255859375,-0.2055255025625229,0.370278924703598,-0.0020799043122678995
1502,1148,-1.0247305631637573,-1.8303152322769165,-1000.2255859375,-0.2055255025625229,0.370278924703598,-0.0020799043122678995
1427,1148,-1.0247305631637573,-1.8303152322769165,-1000.2255859375,-0.2055255025625229,0.370278924703598,-0.0020799043122678995
1444,1148,-1.0247305631637573,-1.8303152322769165,-1000.2255859375,-0.2055255025625229,0.370278924703598,-0.0020799043122678995
1432,1148,-1.0247305631637573,-1.8303152322769165,-1000.2255859375,-0.2055255025625229,0.370278924703598,-0.0020799043122678995
1433,1148,-1.0247305631637573,-1.8303152322769165,-1000.2255859375,-0.2055255025625229,0.370278924703598,-0.0020799043122678995
1476,1149,0.7319703698158264,0.5920096039772034,-1000.0997314453125,0.4187029302120209,0.3946341276168823,-0.4162023067474365
1489,1149,0.7319703698158264,0.5920096039772034,-1000.0997314453125,0.4187029302120209,0.3946341276168823,-0.4162023067474365
1514,1149,0.7319703698158264,0.5920096039772034,-1000.0997314453125,0.4187029302120209,0.3946341276168823,-0.4162023067474365
1501,1149,0.7319703698158264,0.5920096039772034,-1000.0997314453125,0.4187029302120209,0.3946341276168823,-0.4162023067474365
1407,1149,0.7319703698158264,0.5920096039772034,-1000.0997314453125,0.4187029302120209,0.3946341276168823,-0.4162023067474365
1420,1149,0.7319703698158264,0.5920096039772034,-1000.0997314453125,0.4187029302120209,0.3946341276168823,-0.4162023067474365
1445,1149,0.7319703698158264,0.5920096039772034,-1000.0997314453125,0.4187029302120209,0.3946341276168823,-0.4162023067474365
1432,1149,0.7319703698158264,0.5920096039772034,-1000.0997314453125,0.4187029302120209,0.3946341276168823,-0.4162023067474365
1516,1150,2.5332484245300293,1.01183021068573,-999.4202270507812,0.48174771666526794,-0.08776663988828659,0.2758219540119171
1500,1150,2.5332484245300293,1.01183021068573,-999.4202270507812,0.48174771666526794,-0.08776663988828659,0.2758219540119171
1480,1150,2.5332484245300293,1.01183021068573,-999.4202270507812,0.48174771666526794,-0.08776663988828659,0.2758219540119171
1488,1150,2.5332484245300293,1.01183021068573,-999.4202270507812,0.48174771666526794,-0.08776663988828659,0.2758219540119171
1447,1150,2.5332484245300293,1.01183021068573,-999.4202270507812,0.48174771666526794,-0.08776663988828659,0.2758219540119171
1431,1150,2.5332484245300293,1.01183021068573,-999.4202270507812,0.48174771666526794,-0.08776663988828659,0.2758219540119171
1411,1150,2.5332484245300293,1.01183021068573,-999.4202270507812,0.48174771666526794,-0.08776663988828659,0.2758219540119171
1419,1150,2.5332484245300293,1.01183021068573,-999.4202270507812,0.48174771666526794,-0.08776663988828659,0.2758219540119171
1510,1151,-0.770510733127594,-1.0568203926086426,-1000.5032348632812,-0.314312219619751,-0.9687961935997009,0.7216410040855408
1505,1151,-0.770510733127594,-1.0568203926086426,-1000.5032348632812,-0.314312219619751,-0.9687961935997009,0.7216410040855408
1484,1151,-0.770510733127594,-1.0568203926086426,-1000.5032348632812,-0.314312219619751,-0.9687961935997009,0.7216410040855408
1498,1151,-0.770510733127594,-1.0568203926086426,-1000.5032348632812,-0.314312219619751,-0.9687961935997009,0.7216410040855408
1441,1151,-0.770510733127594,-1.0568203926086426,-1000.5032348632812,-0.314312219619751,-0.9687961935997009,0.7216410040855408
1436,1151,-0.770510733127594,-1.0568203926086426,-1000.5032348632812,-0.314312219619751,-0.9687961935997009,0.7216410040855408
1415,1151,-0.770510733127594,-1.0568203926086426,-1000.5032348632812,-0.314312219619751,-0.9687961935997009,0.7216410040855408
1429,1151,-0.770510733127594,-1.0568203926086426,-1000.5032348632812,-0.314312219619751,-0.9687961935997009,0.7216410040855408
1484,1152,0.8025762438774109,0.3393942415714264,-1000.1436157226562,0.6497231125831604,-0.06255453079938889,-0.3145482540130615
1499,1152,0.8025762438774109,0.3393942415714264,-1000.1436157226562,0.6497231125831604,-0.06255453079938889,-0.3145482540130615
1507,1152,0.8025762438774109,0.3393942415714264,-1000.1436157226562,0.6497231125831604,-0.06255453079938889,-0.3145482540130615
1508,1152,0.8025762438774109,0.3393942415714264,-1000.1436157226562,0.6497231125831604,-0.06255453079938889,-0.3145482540130615
1415,1152,0.8025762438774109,0.3393942415714264,-1000.1436157226562,0.6497231125831604,-0.06255453079938889,-0.3145482540130615
1430,1152,0.8025762438774109,0.3393942415714264,-1000.1436157226562,0.6497231125831604,-0.06255453079938889,-0.3145482540130615
1438,1152,0.8025762438774109,0.3393942415714264,-1000.1436157226562,0.6497231125831604,-0.06255453079938889,-0.3145482540130615
1439,1152,0.8025762438774109,0.3393942415714264,-1000.1436157226562,0.6497231125831604,-0.06255453079938889,-0.3145482540130615
1491,1153,0.21895131468772888,0.16210536658763885,-1001.0429077148438,-0.8590607643127441,0.08831775188446045,-0.2102089822292328
1472,1153,0.21895131468772888,0.16210536658763885,-1001.0429077148438,-0.8590607643127441,0.08831775188446045,-0.2102089822292328
1511,1153,0.21895131468772888,0.16210536658763885,-1001.0429077148438,-0.8590607643127441,0.08831775188446045,-0.2102089822292328
1494,1153,0.21895131468772888,0.16210536658763885,-1001.0429077148438,-0.8590607643127441,0.08831775188446045,-0.2102089822292328
1422,1153,0.21895131468772888,0.16210536658763885,-1001.0429077148438,-0.8590607643127441,0.08831775188446045,-0.2102089822292328
1403,1153,0.21895131468772888,0.16210536658763885,-1001.0429077148438,-0.8590607643127441,0.08831775188446045,-0.2102089822292328
1442,1153,0.21895131468772888,0.16210536658763885,-1001.0429077148438,-0.8590607643127441,0.08831775188446045,-0.2102089822292328
1425,1153,0.21895131468772888,0.16210536658763885,-1001.0429077148438,-0.8590607643127441,0.08831775188446045,-0.2102089822292328
1518,1154,1.131648302078247,1.4217984676361084,-999.0303344726562,-0.28620049357414246,0.26088401675224304,0.2589343190193176
1474,1154,1.131648302078247,1.4217984676361084,-999.0303344726562,-0.28620049357414246,0.26088401675224304,0.2589343190193176
1491,1154,1.131648302078247,1.4217984676361084,-999.0303344726562,-0.28620049357414246,0.26088401675224304,0.2589343190193176
1494,1154,1.131648302078247,1.4217984676361084,-999.0303344726562,-0.28620049357414246,0.26088401675224304,0.2589343190193176
1449,1154,1.131648302078247,1.4217984676361084,-999.0303344726562,-0.28620049357414246,0.26088401675224304,0.2589343190193176
1405,1154,1.131648302078247,1.4217984676361084,-999.0303344726562,-0.28620049357414246,0.26088401675224304,0.2589343190193176
1422,1154,1.131648302078247,1.4217984676361084,-999.0303344726562,-0.28620049357414246,0.26088401675224304,0.2589343190193176
1425,1154,1.131648302078247,1.4217984676361084,-999.0303344726562,-0.28620049357414246,0.26088401675224304,0.2589343190193176
1478,1155,1.3604570627212524,0.6064234972000122,-999.6288452148438,0.24615764617919922,0.19974367320537567,-0.4821009933948517
1479,1155,1.3604570627212524,0.6064234972000122,-999.6288452148438,0.24615764617919922,0.19974367320537567,-0.4821009933948517
1515,1155,1.3604570627212524,0.6064234972000122,-999.6288452148438,0.24615764617919922,0.19974367320537567,-0.4821009933948517
1493,1155,1.3604570627212524,0.6064234972000122,-999.6288452148438,0.24615764617919922,0.19974367320537567,-0.4821009933948517
1409,1155,1.3604570627212524,0.6064234972000122,-999.6288452148438,0.24615764617919922,0.19974367320537567,-0.4821009933948517
1410,1155,1.3604570627212524,0.6064234972000122,-999.6288452148438,0.24615764617919922,0.19974367320537567,-0.4821009933948517
1446,1155,1.3604570627212524,0.6064234972000122,-999.6288452148438,0.24615764617919922,0.19974367320537567,-0.4821009933948517
1424,1155,1.3604570627212524,0.6064234972000122,-999.6288452148438,0.24615764617919922,0.19974367320537567,-0.4821009933948517
1463,1156,-0.39042988419532776,-0.8956144452095032,-999.9788208007812,0.5239549279212952,-0.020891297608613968,-0.0957573726773262
1472,1156,-0.39042988419532776,-0.8956144452095032,-999.9788208007812,0.5239549279212952,-0.020891297608613968,-0.0957573726773262
1491,1156,-0.39042988419532776,-0.8956144452095032,-999.9788208007812,0.5239549279212952,-0.020891297608613968,-0.0957573726773262
1471,1156,-0.39042988419532776,-0.8956144452095032,-999.9788208007812,0.5239549279212952,-0.020891297608613968,-0.0957573726773262
1394,1156,-0.39042988419532776,-0.8956144452095032,-999.9788208007812,0.5239549279212952,-0.020891297608613968,-0.0957573726773262
1403,1156,-0.39042988419532776,-0.8956144452095032,-999.9788208007812,0.5239549279212952,-0.020891297608613968,-0.0957573726773262
1422,1156,-0.39042988419532776,-0.8956144452095032,-999.9788208007812,0.5239549279212952,-0.020891297608613968,-0.0957573726773262
1402,1156,-0.39042988419532776,-0.8956144452095032,-999.9788208007812,0.5239549279212952,-0.020891297608613968,-0.0957573726773262
1460,1157,-0.4336865544319153,-1.7447508573532104,-1000.0838623046875,0.02832675538957119,-0.024686748161911964,0.012256034649908543
1506,1157,-0.4336865544319153,-1.7447508573532104,-1000.0838623046875,0.02832675538957119,-0.024686748161911964,0.012256034649908543
1475,1157,-0.4336865544319153,-1.7447508573532104,-1000.0838623046875,0.02832675538957119,-0.024686748161911964,0.012256034649908543
1470,1157,-0.4336865544319153,-1.7447508573532104,-1000.0838623046875,0.02832675538957119,-0.024686748161911964,0.012256034649908543
1391,1157,-0.4336865544319153,-1.7447508573532104,-1000.0838623046875,0.02832675538957119,-0.024686748161911964,0.012256034649908543
1437,1157,-0.4336865544319153,-1.7447508573532104,-1000.0838623046875,0.02832675538957119,-0.024686748161911964,0.012256034649908543
1406,1157,-0.4336865544319153,-1.7447508573532104,-1000.0838623046875,0.02832675538957119,-0.024686748161911964,0.012256034649908543
1401,1157,-0.4336865544319153,-1.7447508573532104,-1000.0838623046875,0.02832675538957119,-0.024686748161911964,0.012256034649908543
1476,1158,-0.7073380351066589,-0.18849517405033112,-999.9917602539062,-0.23962543904781342,-0.06871092319488525,0.12741690874099731
1459,1158,-0.7073380351066589,-0.18849517405033112,-999.9917602539062,-0.23962543904781342,-0.06871092319488525,0.12741690874099731
1469,1158,-0.7073380351066589,-0.18849517405033112,-999.9917602539062,-0.23962543904781342,-0.06871092319488525,0.12741690874099731
1489,1158,-0.7073380351066589,-0.18849517405033112,-999.9917602539062,-0.23962543904781342,-0.06871092319488525,0.12741690874099731
1407,1158,-0.7073380351066589,-0.18849517405033112,-999.9917602539062,-0.23962543904781342,-0.06871092319488525,0.12741690874099731
1390,1158,-0.7073380351066589,-0.18849517405033112,-999.9917602539062,-0.23962543904781342,-0.06871092319488525,0.12741690874099731
1400,1158,-0.7073380351066589,-0.18849517405033112,-999.9917602539062,-0.23962543904781342,-0.06871092319488525,0.12741690874099731
1420,1158,-0.7073380351066589,-0.18849517405033112,-999.9917602539062,-0.23962543904781342,-0.06871092319488525,0.12741690874099731
1477,1159,-0.9702605605125427,-0.14716710150241852,-999.9298095703125,0.03987695649266243,-0.09806304425001144,-0.06187472864985466
1465,1159,-0.9702605605125427,-0.14716710150241852,-999.9298095703125,0.03987695649266243,-0.09806304425001144,-0.06187472864985466
1464,1159,-0.9702605605125427,-0.14716710150241852,-999.9298095703125,0.03987695649266243,-0.09806304425001144,-0.06187472864985466
1474,1159,-0.9702605605125427,-0.14716710150241852,-999.9298095703125,0.03987695649266243,-0.09806304425001144,-0.06187472864985466
1408,1159,-0.9702605605125427,-0.14716710150241852,-999.9298095703125,0.03987695649266243,-0.09806304425001144,-0.06187472864985466
1396,1159,-0.9702605605125427,-0.14716710150241852,-999.9298095703125,0.03987695649266243,-0.09806304425001144,-0.06187472864985466
1395,1159,-0.9702605605125427,-0.14716710150241852,-999.9298095703125,0.03987695649266243,-0.09806304425001144,-0.06187472864985466
1405,1159,-0.9702605605125427,-0.14716710150241852,-999.9298095703125,0.03987695649266243,-0.09806304425001144,-0.06187472864985466
1489,1160,-0.6165635585784912,0.07702971249818802,-999.9627075195312,0.05850612744688988,0.11125677078962326,-0.06884592026472092
1469,1160,-0.6165635585784912,0.07702971249818802,-999.9627075195312,0.05850612744688988,0.11125677078962326,-0.06884592026472092
1458,1160,-0.6165635585784912,0.07702971249818802,-999.9627075195312,0.05850612744688988,0.11125677078962326,-0.06884592026472092
1478,1160,-0.6165635585784912,0.07702971249818802,-999.9627075195312,0.05850612744688988,0.11125677078962326,-0.06884592026472092
1420,1160,-0.6165635585784912,0.07702971249818802,-999.9627075195312,0.05850612744688988,0.11125677078962326,-0.06884592026472092
1400,1160,-0.6165635585784912,0.07702971249818802,-999.9627075195312,0.05850612744688988,0.11125677078962326,-0.06884592026472092
1389,1160,-0.6165635585784912,0.07702971249818802,-999.9627075195312,0.05850612744688988,0.11125677078962326,-0.06884592026472092
1409,1160,-0.6165635585784912,0.07702971249818802,-999.9627075195312,0.05850612744688988,0.11125677078962326,-0.06884592026472092
1513,1161,0.3242449164390564,0.7926548719406128,-999.86279296875,0.68677818775177,-0.33308205008506775,0.16616104543209076
1506,1161,0.3242449164390564,0.7926548719406128,-999.86279296875,0.68677818775177,-0.33308205008506775,0.16616104543209076
1476,1161,0.3242449164390564,0.7926548719406128,-999.86279296875,0.68677818775177,-0.33308205008506775,0.16616104543209076
1501,1161,0.3242449164390564,0.7926548719406128,-999.86279296875,0.68677818775177,-0.33308205008506775,0.16616104543209076
1444,1161,0.3242449164390564,0.7926548719406128,-999.86279296875,0.68677818775177,-0.33308205008506775,0.16616104543209076
1437,1161,0.3242449164390564,0.7926548719406128,-999.86279296875,0.68677818775177,-0.33308205008506775,0.16616104543209076
1407,1161,0.3242449164390564,0.7926548719406128,-999.86279296875,0.68677818775177,-0.33308205008506775,0.16616104543209076
1432,1161,0.3242449164390564,0.7926548719406128,-999.86279296875,0.68677818775177,-0.33308205008506775,0.16616104543209076
1478,1162,-0.41897743940353394,-0.03867645934224129,-1000.0250854492188,0.13415151834487915,0.02050206810235977,0.16514499485492706
1458,1162,-0.41897743940353394,-0.03867645934224129,-1000.0250854492188,0.13415151834487915,0.02050206810235977,0.16514499485492706
1457,1162,-0.41897743940353394,-0.03867645934224129,-1000.0250854492188,0.13415151834487915,0.02050206810235977,0.16514499485492706
1479,1162,-0.41897743940353394,-0.03867645934224129,-1000.0250854492188,0.13415151834487915,0.02050206810235977,0.16514499485492706
1409,1162,-0.41897743940353394,-0.03867645934224129,-1000.0250854492188,0.13415151834487915,0.02050206810235977,0.16514499485492706
1389,1162,-0.41897743940353394,-0.03867645934224129,-1000.0250854492188,0.13415151834487915,0.02050206810235977,0.16514499485492706
1388,1162,-0.41897743940353394,-0.03867645934224129,-1000.0250854492188,0.13415151834487915,0.02050206810235977,0.16514499485492706
1410,1162,-0.41897743940353394,-0.03867645934224129,-1000.0250854492188,0.13415151834487915,0.02050206810235977,0.16514499485492706
1479,1163,-0.7604760527610779,-0.12169257551431656,-999.9218139648438,-0.0430830642580986,0.027840279042720795,-0.15485915541648865
1457,1163,-0.7604760527610779,-0.12169257551431656,-999.9218139648438,-0.0430830642580986,0.027840279042720795,-0.15485915541648865
1456,1163,-0.7604760527610779,-0.12169257551431656,-999.9218139648438,-0.0430830642580986,0.027840279042720795,-0.15485915541648865
1480,1163,-0.7604760527610779,-0.12169257551431656,-999.9218139648438,-0.0430830642580986,0.027840279042720795,-0.15485915541648865
1410,1163,-0.7604760527610779,-0.12169257551431656,-999.9218139648438,-0.0430830642580986,0.027840279042720795,-0.15485915541648865
1388,1163,-0.7604760527610779,-0.12169257551431656,-999.9218139648438,-0.0430830642580986,0.027840279042720795,-0.15485915541648865
1387,1163,-0.7604760527610779,-0.12169257551431656,-999.9218139648438,-0.0430830642580986,0.027840279042720795,-0.15485915541648865
1411,1163,-0.7604760527610779,-0.12169257551431656,-999.9218139648438,-0.0430830642580986,0.027840279042720795,-0.15485915541648865
1510,1164,0.38676607608795166,-0.8957614302635193,-999.5380249023438,-0.3591059744358063,0.00015429714403580874,-0.912260115146637
1498,1164,0.38676607608795166,-0.8957614302635193,-999.5380249023438,-0.3591059744358063,0.00015429714403580874,-0.912260115146637
1509,1164,0.38676607608795166,-0.8957614302635193,-999.5380249023438,-0.3591059744358063,0.00015429714403580874,-0.912260115146637
1503,1164,0.38676607608795166,-0.8957614302635193,-999.5380249023438,-0.3591059744358063,0.00015429714403580874,-0.912260115146637
1441,1164,0.38676607608795166,-0.8957614302635193,-999.5380249023438,-0.3591059744358063,0.00015429714403580874,-0.912260115146637
1429,1164,0.38676607608795166,-0.8957614302635193,-999.5380249023438,-0.3591059744358063,0.00015429714403580874,-0.912260115146637
1440,1164,0.38676607608795166,-0.8957614302635193,-999.5380249023438,-0.3591059744358063,0.00015429714403580874,-0.912260115146637
1434,1164,0.38676607608795166,-0.8957614302635193,-999.5380249023438,-0.3591059744358063,0.00015429714403580874,-0.912260115146637
1465,1165,-1.004023551940918,-0.4785270690917969,-1000.0424194335938,-0.34408533573150635,-0.060511514544487,0.11550328135490417
1477,1165,-1.004023551940918,-0.4785270690917969,-1000.0424194335938,-0.34408533573150635,-0.060511514544487,0.11550328135490417
1485,1165,-1.004023551940918,-0.4785270690917969,-1000.0424194335938,-0.34408533573150635,-0.060511514544487,0.11550328135490417
1450,1165,-1.004023551940918,-0.4785270690917969,-1000.0424194335938,-0.34408533573150635,-0.060511514544487,0.11550328135490417
1396,1165,-1.004023551940918,-0.4785270690917969,-1000.0424194335938,-0.34408533573150635,-0.060511514544487,0.11550328135490417
1408,1165,-1.004023551940918,-0.4785270690917969,-1000.0424194335938,-0.34408533573150635,-0.060511514544487,0.11550328135490417
1416,1165,-1.004023551940918,-0.4785270690917969,-1000.0424194335938,-0.34408533573150635,-0.060511514544487,0.11550328135490417
1381,1165,-1.004023551940918,-0.4785270690917969,-1000.0424194335938,-0.34408533573150635,-0.060511514544487,0.11550328135490417
1480,1166,-0.9929251074790955,-0.07901005446910858,-1000.0697021484375,-0.07348179817199707,0.09879552572965622,0.06201919913291931
1456,1166,-0.9929251074790955,-0.07901005446910858,-1000.0697021484375,-0.07348179817199707,0.09879552572965622,0.06201919913291931
1468,1166,-0.9929251074790955,-0.07901005446910858,-1000.0697021484375,-0.07348179817199707,0.09879552572965622,0.06201919913291931
1488,1166,-0.9929251074790955,-0.07901005446910858,-1000.0697021484375,-0.07348179817199707,0.09879552572965622,0.06201919913291931
1411,1166,-0.9929251074790955,-0.07901005446910858,-1000.0697021484375,-0.07348179817199707,0.09879552572965622,0.06201919913291931
1387,1166,-0.9929251074790955,-0.07901005446910858,-1000.0697021484375,-0.07348179817199707,0.09879552572965622,0.06201919913291931
1399,1166,-0.9929251074790955,-0.07901005446910858,-1000.0697021484375,-0.07348179817199707,0.09879552572965622,0.06201919913291931
1419,1166,-0.9929251074790955,-0.07901005446910858,-1000.0697021484375,-0.07348179817199707,0.09879552572965622,0.06201919913291931
1488,1167,-0.814146876335144,-0.15326832234859467,-999.8820190429688,0.36128222942352295,-0.03216211870312691,-0.14539624750614166
1468,1167,-0.814146876335144,-0.15326832234859467,-999.8820190429688,0.36128222942352295,-0.03216211870312691,-0.14539624750614166
1455,1167,-0.814146876335144,-0.15326832234859467,-999.8820190429688,0.36128222942352295,-0.03216211870312691,-0.14539624750614166
1481,1167,-0.814146876335144,-0.15326832234859467,-999.8820190429688,0.36128222942352295,-0.03216211870312691,-0.14539624750614166
1419,1167,-0.814146876335144,-0.15326832234859467,-999.8820190429688,0.36128222942352295,-0.03216211870312691,-0.14539624750614166
1399,1167,-0.814146876335144,-0.15326832234859467,-999.8820190429688,0.36128222942352295,-0.03216211870312691,-0.14539624750614166
1386,1167,-0.814146876335144,-0.15326832234859467,-999.8820190429688,0.36128222942352295,-0.03216211870312691,-0.14539624750614166
1412,1167,-0.814146876335144,-0.15326832234859467,-999.8820190429688,0.36128222942352295,-0.03216211870312691,-0.14539624750614166
1481,1168,-0.6328577399253845,-0.8998560905456543,-1000.103759765625,0.3679494857788086,0.060398150235414505,0.09020324796438217
1455,1168,-0.6328577399253845,-0.8998560905456543,-1000.103759765625,0.3679494857788086,0.060398150235414505,0.09020324796438217
1454,1168,-0.6328577399253845,-0.8998560905456543,-1000.103759765625,0.3679494857788086,0.060398150235414505,0.09020324796438217
1482,1168,-0.6328577399253845,-0.8998560905456543,-1000.103759765625,0.3679494857788086,0.060398150235414505,0.09020324796438217
1412,1168,-0.6328577399253845,-0.8998560905456543,-1000.103759765625,0.3679494857788086,0.060398150235414505,0.09020324796438217
1386,1168,-0.6328577399253845,-0.8998560905456543,-1000.103759765625,0.3679494857788086,0.060398150235414505,0.09020324796438217
1385,1168,-0.6328577399253845,-0.8998560905456543,-1000.103759765625,0.3679494857788086,0.060398150235414505,0.09020324796438217
1413,1168,-0.6328577399253845,-0.8998560905456543,-1000.103759765625,0.3679494857788086,0.060398150235414505,0.09020324796438217
1482,1169,-0.18611177802085876,-0.9079849123954773,-999.89013671875,0.09510382264852524,0.010076116770505905,-0.12758633494377136
1454,1169,-0.18611177802085876,-0.9079849123954773,-999.89013671875,0.09510382264852524,0.010076116770505905,-0.12758633494377136
1467,1169,-0.18611177802085876,-0.9079849123954773,-999.89013671875,0.09510382264852524,0.010076116770505905,-0.12758633494377136
1487,1169,-0.18611177802085876,-0.9079849123954773,-999.89013671875,0.09510382264852524,0.010076116770505905,-0.12758633494377136
1413,1169,-0.18611177802085876,-0.9079849123954773,-999.89013671875,0.09510382264852524,0.010076116770505905,-0.12758633494377136
1385,1169,-0.18611177802085876,-0.9079849123954773,-999.89013671875,0.09510382264852524,0.010076116770505905,-0.12758633494377136
1398,1169,-0.18611177802085876,-0.9079849123954773,-999.89013671875,0.09510382264852524,0.010076116770505905,-0.12758633494377136
1418,1169,-0.18611177802085876,-0.9079849123954773,-999.89013671875,0.09510382264852524,0.010076116770505905,-0.12758633494377136
1487,1170,-0.29072830080986023,-0.8754695653915405,-1000.085205078125,-0.015705253928899765,0.07554124295711517,-0.1264815628528595
1467,1170,-0.29072830080986023,-0.8754695653915405,-1000.085205078125,-0.015705253928899765,0.07554124295711517,-0.1264815628528595
1453,1170,-0.29072830080986023,-0.8754695653915405,-1000.085205078125,-0.015705253928899765,0.07554124295711517,-0.1264815628528595
1483,1170,-0.29072830080986023,-0.8754695653915405,-1000.085205078125,-0.015705253928899765,0.07554124295711517,-0.1264815628528595
1418,1170,-0.29072830080986023,-0.8754695653915405,-1000.085205078125,-0.015705253928899765,0.07554124295711517,-0.1264815628528595
1398,1170,-0.29072830080986023,-0.8754695653915405,-1000.085205078125,-0.015705253928899765,0.07554124295711517,-0.1264815628528595
1384,1170,-0.29072830080986023,-0.8754695653915405,-1000.085205078125,-0.015705253928899765,0.07554124295711517,-0.1264815628528595
1414,1170,-0.29072830080986023,-0.8754695653915405,-1000.085205078125,-0.015705253928899765,0.07554124295711517,-0.1264815628528595
1507,1171,-1.033145546913147,-1.1780060529708862,-1000.0867919921875,-0.4626692831516266,0.10165228694677353,-0.06019379198551178
1452,1171,-1.033145546913147,-1.1780060529708862,-1000.0867919921875,-0.4626692831516266,0.10165228694677353,-0.06019379198551178
1451,1171,-1.033145546913147,-1.1780060529708862,-1000.0867919921875,-0.4626692831516266,0.10165228694677353,-0.06019379198551178
1508,1171,-1.033145546913147,-1.1780060529708862,-1000.0867919921875,-0.4626692831516266,0.10165228694677353,-0.06019379198551178
1438,1171,-1.033145546913147,-1.1780060529708862,-1000.0867919921875,-0.4626692831516266,0.10165228694677353,-0.06019379198551178
1383,1171,-1.033145546913147,-1.1780060529708862,-1000.0867919921875,-0.4626692831516266,0.10165228694677353,-0.06019379198551178
1382,1171,-1.033145546913147,-1.1780060529708862,-1000.0867919921875,-0.4626692831516266,0.10165228694677353,-0.06019379198551178
1439,1171,-1.033145546913147,-1.1780060529708862,-1000.0867919921875,-0.4626692831516266,0.10165228694677353,-0.06019379198551178
1486,1172,-0.24724574387073517,-0.36922743916511536,-999.9473266601562,-0.2585083842277527,-0.08012563735246658,-0.12436124682426453
1466,1172,-0.24724574387073517,-0.36922743916511536,-999.9473266601562,-0.2585083842277527,-0.08012563735246658,-0.12436124682426453
1450,1172,-0.24724574387073517,-0.36922743916511536,-999.9473266601562,-0.2585083842277527,-0.08012563735246658,-0.12436124682426453
1485,1172,-0.24724574387073517,-0.36922743916511536,-999.9473266601562,-0.2585083842277527,-0.08012563735246658,-0.12436124682426453
1417,1172,-0.24724574387073517,-0.36922743916511536,-999.9473266601562,-0.2585083842277527,-0.08012563735246658,-0.12436124682426453
1397,1172,-0.24724574387073517,-0.36922743916511536,-999.9473266601562,-0.2585083842277527,-0.08012563735246658,-0.12436124682426453
1381,1172,-0.24724574387073517,-0.36922743916511536,-999.9473266601562,-0.2585083842277527,-0.08012563735246658,-0.12436124682426453
1416,1172,-0.24724574387073517,-0.36922743916511536,-999.9473266601562,-0.2585083842277527,-0.08012563735246658,-0.12436124682426453
1509,1173,2.169114351272583,2.124732255935669,-998.9390258789062,0.44210708141326904,0.054545432329177856,0.4234258234500885
1485,1173,2.169114351272583,2.124732255935669,-998.9390258789062,0.44210708141326904,0.054545432329177856,0.4234258234500885
1477,1173,2.169114351272583,2.124732255935669,-998.9390258789062,0.44210708141326904,0.054545432329177856,0.4234258234500885
1492,1173,2.169114351272583,2.124732255935669,-998.9390258789062,0.44210708141326904,0.054545432329177856,0.4234258234500885
1440,1173,2.169114351272583,2.124732255935669,-998.9390258789062,0.44210708141326904,0.054545432329177856,0.4234258234500885
1416,1173,2.169114351272583,2.124732255935669,-998.9390258789062,0.44210708141326904,0.054545432329177856,0.4234258234500885
1408,1173,2.169114351272583,2.124732255935669,-998.9390258789062,0.44210708141326904,0.054545432329177856,0.4234258234500885
1423,1173,2.169114351272583,2.124732255935669,-998.9390258789062,0.44210708141326904,0.054545432329177856,0.4234258234500885
1508,1174,1.047791600227356,2.002466917037964,-999.4468994140625,0.2550138235092163,0.09206798672676086,0.2596685588359833
1486,1174,1.047791600227356,2.002466917037964,-999.4468994140625,0.2550138235092163,0.09206798672676086,0.2596685588359833
1498,1174,1.047791600227356,2.002466917037964,-999.4468994140625,0.2550138235092163,0.09206798672676086,0.2596685588359833
1484,1174,1.047791600227356,2.002466917037964,-999.4468994140625,0.2550138235092163,0.09206798672676086,0.2596685588359833
1439,1174,1.047791600227356,2.002466917037964,-999.4468994140625,0.2550138235092163,0.09206798672676086,0.2596685588359833
1417,1174,1.047791600227356,2.002466917037964,-999.4468994140625,0.2550138235092163,0.09206798672676086,0.2596685588359833
1429,1174,1.047791600227356,2.002466917037964,-999.4468994140625,0.2550138235092163,0.09206798672676086,0.2596685588359833
1415,1174,1.047791600227356,2.002466917037964,-999.4468994140625,0.2550138235092163,0.09206798672676086,0.2596685588359833
1483,1175,-0.2763671875,-0.6841887831687927,-999.9398803710938,-0.3764665126800537,-0.07089074701070786,-0.03153142333030701
1453,1175,-0.2763671875,-0.6841887831687927,-999.9398803710938,-0.3764665126800537,-0.07089074701070786,-0.03153142333030701
1452,1175,-0.2763671875,-0.6841887831687927,-999.9398803710938,-0.3764665126800537,-0.07089074701070786,-0.03153142333030701
1507,1175,-0.2763671875,-0.6841887831687927,-999.9398803710938,-0.3764665126800537,-0.07089074701070786,-0.03153142333030701
1414,1175,-0.2763671875,-0.6841887831687927,-999.9398803710938,-0.3764665126800537,-0.07089074701070786,-0.03153142333030701
1384,1175,-0.2763671875,-0.6841887831687927,-999.9398803710938,-0.3764665126800537,-0.07089074701070786,-0.03153142333030701
1383,1175,-0.2763671875,-0.6841887831687927,-999.9398803710938,-0.3764665126800537,-0.07089074701070786,-0.03153142333030701
1438,1175,-0.2763671875,-0.6841887831687927,-999.9398803710938,-0.3764665126800537,-0.07089074701070786,-0.03153142333030701
1492,1176,0.6090233325958252,-1.0668622255325317,-1001.1838989257812,-0.08699194341897964,0.6346633434295654,-0.6959452033042908
1477,1176,0.6090233325958252,-1.0668622255325317,-1001.1838989257812,-0.08699194341897964,0.6346633434295654,-0.6959452033042908
1474,1176,0.6090233325958252,-1.0668622255325317,-1001.1838989257812,-0.08699194341897964,0.6346633434295654,-0.6959452033042908
1518,1176,0.6090233325958252,-1.0668622255325317,-1001.1838989257812,-0.08699194341897964,0.6346633434295654,-0.6959452033042908
1423,1176,0.6090233325958252,-1.0668622255325317,-1001.1838989257812,-0.08699194341897964,0.6346633434295654,-0.6959452033042908
1408,1176,0.6090233325958252,-1.0668622255325317,-1001.1838989257812,-0.08699194341897964,0.6346633434295654,-0.6959452033042908
1405,1176,0.6090233325958252,-1.0668622255325317,-1001.1838989257812,-0.08699194341897964,0.6346633434295654,-0.6959452033042908
1449,1176,0.6090233325958252,-1.0668622255325317,-1001.1838989257812,-0.08699194341897964,0.6346633434295654,-0.6959452033042908
1503,1177,-0.0661565437912941,0.32743504643440247,-999.8658447265625,0.7072377800941467,-0.10710350424051285,-0.07855302095413208
1518,1177,-0.0661565437912941,0.32743504643440247,-999.8658447265625,0.7072377800941467,-0.10710350424051285,-0.07855302095413208
1494,1177,-0.0661565437912941,0.32743504643440247,-999.8658447265625,0.7072377800941467,-0.10710350424051285,-0.07855302095413208
1502,1177,-0.0661565437912941,0.32743504643440247,-999.8658447265625,0.7072377800941467,-0.10710350424051285,-0.07855302095413208
1434,1177,-0.0661565437912941,0.32743504643440247,-999.8658447265625,0.7072377800941467,-0.10710350424051285,-0.07855302095413208
1449,1177,-0.0661565437912941,0.32743504643440247,-999.8658447265625,0.7072377800941467,-0.10710350424051285,-0.07855302095413208
1425,1177,-0.0661565437912941,0.32743504643440247,-999.8658447265625,0.7072377800941467,-0.10710350424051285,-0.07855302095413208
1433,1177,-0.0661565437912941,0.32743504643440247,-999.8658447265625,0.7072377800941467,-0.10710350424051285,-0.07855302095413208
1473,1178,0.13023041188716888,1.0336549282073975,-1000.8173217773438,-0.3045492172241211,0.39305379986763,-0.26785650849342346
1490,1178,0.13023041188716888,1.0336549282073975,-1000.8173217773438,-0.3045492172241211,0.39305379986763,-0.26785650849342346
1512,1178,0.13023041188716888,1.0336549282073975,-1000.8173217773438,-0.3045492172241211,0.39305379986763,-0.26785650849342346
1497,1178,0.13023041188716888,1.0336549282073975,-1000.8173217773438,-0.3045492172241211,0.39305379986763,-0.26785650849342346
1404,1178,0.13023041188716888,1.0336549282073975,-1000.8173217773438,-0.3045492172241211,0.39305379986763,-0.26785650849342346
1421,1178,0.13023041188716888,1.0336549282073975,-1000.8173217773438,-0.3045492172241211,0.39305379986763,-0.26785650849342346
1443,1178,0.13023041188716888,1.0336549282073975,-1000.8173217773438,-0.3045492172241211,0.39305379986763,-0.26785650849342346
1428,1178,0.13023041188716888,1.0336549282073975,-1000.8173217773438,-0.3045492172241211,0.39305379986763,-0.26785650849342346
1497,1179,0.44189777970314026,-1.7487694025039673,-999.9684448242188,0.019855333492159843,-0.12435877323150635,0.5311611890792847
1512,1179,0.44189777970314026,-1.7487694025039673,-999.9684448242188,0.019855333492159843,-0.12435877323150635,0.5311611890792847
1496,1179,0.44189777970314026,-1.7487694025039673,-999.9684448242188,0.019855333492159843,-0.12435877323150635,0.5311611890792847
1502,1179,0.44189777970314026,-1.7487694025039673,-999.9684448242188,0.019855333492159843,-0.12435877323150635,0.5311611890792847
1428,1179,0.44189777970314026,-1.7487694025039673,-999.9684448242188,0.019855333492159843,-0.12435877323150635,0.5311611890792847
1443,1179,0.44189777970314026,-1.7487694025039673,-999.9684448242188,0.019855333492159843,-0.12435877323150635,0.5311611890792847
1427,1179,0.44189777970314026,-1.7487694025039673,-999.9684448242188,0.019855333492159843,-0.12435877323150635,0.5311611890792847
1433,1179,0.44189777970314026,-1.7487694025039673,-999.9684448242188,0.019855333492159843,-0.12435877323150635,0.5311611890792847
1499,1180,0.7996437549591064,1.6080230474472046,-999.7523193359375,0.2706793248653412,-0.05341178923845291,0.5360865592956543
1487,1180,0.7996437549591064,1.6080230474472046,-999.7523193359375,0.2706793248653412,-0.05341178923845291,0.5360865592956543
1483,1180,0.7996437549591064,1.6080230474472046,-999.7523193359375,0.2706793248653412,-0.05341178923845291,0.5360865592956543
1507,1180,0.7996437549591064,1.6080230474472046,-999.7523193359375,0.2706793248653412,-0.05341178923845291,0.5360865592956543
1430,1180,0.7996437549591064,1.6080230474472046,-999.7523193359375,0.2706793248653412,-0.05341178923845291,0.5360865592956543
1418,1180,0.7996437549591064,1.6080230474472046,-999.7523193359375,0.2706793248653412,-0.05341178923845291,0.5360865592956543
1414,1180,0.7996437549591064,1.6080230474472046,-999.7523193359375,0.2706793248653412,-0.05341178923845291,0.5360865592956543
1438,1180,0.7996437549591064,1.6080230474472046,-999.7523193359375,0.2706793248653412,-0.05341178923845291,0.5360865592956543
1497,1181,-1.2126529216766357,-1.5878844261169434,-1000.3566284179688,0.33745822310447693,-0.4611930251121521,-0.14520590007305145
1502,1181,-1.2126529216766357,-1.5878844261169434,-1000.3566284179688,0.33745822310447693,-0.4611930251121521,-0.14520590007305145
1494,1181,-1.2126529216766357,-1.5878844261169434,-1000.3566284179688,0.33745822310447693,-0.4611930251121521,-0.14520590007305145
1511,1181,-1.2126529216766357,-1.5878844261169434,-1000.3566284179688,0.33745822310447693,-0.4611930251121521,-0.14520590007305145
1428,1181,-1.2126529216766357,-1.5878844261169434,-1000.3566284179688,0.33745822310447693,-0.4611930251121521,-0.14520590007305145
1433,1181,-1.2126529216766357,-1.5878844261169434,-1000.3566284179688,0.33745822310447693,-0.4611930251121521,-0.14520590007305145
1425,1181,-1.2126529216766357,-1.5878844261169434,-1000.3566284179688,0.33745822310447693,-0.4611930251121521,-0.14520590007305145
1442,1181,-1.2126529216766357,-1.5878844261169434,-1000.3566284179688,0.33745822310447693,-0.4611930251121521,-0.14520590007305145
1475,1182,0.6135717034339905,2.215529203414917,-1000.078857421875,-0.23954840004444122,0.10195567458868027,-0.1280691921710968
1506,1182,0.6135717034339905,2.215529203414917,-1000.078857421875,-0.23954840004444122,0.10195567458868027,-0.1280691921710968
1513,1182,0.6135717034339905,2.215529203414917,-1000.078857421875,-0.23954840004444122,0.10195567458868027,-0.1280691921710968
1496,1182,0.6135717034339905,2.215529203414917,-1000.078857421875,-0.23954840004444122,0.10195567458868027,-0.1280691921710968
1406,1182,0.6135717034339905,2.215529203414917,-1000.078857421875,-0.23954840004444122,0.10195567458868027,-0.1280691921710968
1437,1182,0.6135717034339905,2.215529203414917,-1000.078857421875,-0.23954840004444122,0.10195567458868027,-0.1280691921710968
1444,1182,0.6135717034339905,2.215529203414917,-1000.078857421875,-0.23954840004444122,0.10195567458868027,-0.1280691921710968
1427,1182,0.6135717034339905,2.215529203414917,-1000.078857421875,-0.23954840004444122,0.10195567458868027,-0.1280691921710968
1517,1183,-1.011610984802246,-1.2651671171188354,-999.885986328125,-0.24305295944213867,0.532379150390625,-0.4559611678123474
1499,1183,-1.011610984802246,-1.2651671171188354,-999.885986328125,-0.24305295944213867,0.532379150390625,-0.4559611678123474
1484,1183,-1.011610984802246,-1.2651671171188354,-999.885986328125,-0.24305295944213867,0.532379150390625,-0.4559611678123474
1505,1183,-1.011610984802246,-1.2651671171188354,-999.885986328125,-0.24305295944213867,0.532379150390625,-0.4559611678123474
1448,1183,-1.011610984802246,-1.2651671171188354,-999.885986328125,-0.24305295944213867,0.532379150390625,-0.4559611678123474
1430,1183,-1.011610984802246,-1.2651671171188354,-999.885986328125,-0.24305295944213867,0.532379150390625,-0.4559611678123474
1415,1183,-1.011610984802246,-1.2651671171188354,-999.885986328125,-0.24305295944213867,0.532379150390625,-0.4559611678123474
1436,1183,-1.011610984802246,-1.2651671171188354,-999.885986328125,-0.24305295944213867,0.532379150390625,-0.4559611678123474
1493,1184,-2.344836711883545,0.3282342553138733,-1000.1945190429688,-0.13564512133598328,0.5849955677986145,0.14801301062107086
1515,1184,-2.344836711883545,0.3282342553138733,-1000.1945190429688,-0.13564512133598328,0.5849955677986145,0.14801301062107086
1500,1184,-2.344836711883545,0.3282342553138733,-1000.1945190429688,-0.13564512133598328,0.5849955677986145,0.14801301062107086
1504,1184,-2.344836711883545,0.3282342553138733,-1000.1945190429688,-0.13564512133598328,0.5849955677986145,0.14801301062107086
1424,1184,-2.344836711883545,0.3282342553138733,-1000.1945190429688,-0.13564512133598328,0.5849955677986145,0.14801301062107086
1446,1184,-2.344836711883545,0.3282342553138733,-1000.1945190429688,-0.13564512133598328,0.5849955677986145,0.14801301062107086
1431,1184,-2.344836711883545,0.3282342553138733,-1000.1945190429688,-0.13564512133598328,0.5849955677986145,0.14801301062107086
1435,1184,-2.344836711883545,0.3282342553138733,-1000.1945190429688,-0.13564512133598328,0.5849955677986145,0.14801301062107086
1516,1185,-0.01623084396123886,-0.3508353531360626,-1000.609375,-1.15812087059021,-0.21412070095539093,0.12669813632965088
1488,1185,-0.01623084396123886,-0.3508353531360626,-1000.609375,-1.15812087059021,-0.21412070095539093,0.12669813632965088
1481,1185,-0.01623084396123886,-0.3508353531360626,-1000.609375,-1.15812087059021,-0.21412070095539093,0.12669813632965088
1495,1185,-0.01623084396123886,-0.3508353531360626,-1000.609375,-1.15812087059021,-0.21412070095539093,0.12669813632965088
1447,1185,-0.01623084396123886,-0.3508353531360626,-1000.609375,-1.15812087059021,-0.21412070095539093,0.12669813632965088
1419,1185,-0.01623084396123886,-0.3508353531360626,-1000.609375,-1.15812087059021,-0.21412070095539093,0.12669813632965088
1412,1185,-0.01623084396123886,-0.3508353531360626,-1000.609375,-1.15812087059021,-0.21412070095539093,0.12669813632965088
1426,1185,-0.01623084396123886,-0.3508353531360626,-1000.609375,-1.15812087059021,-0.21412070095539093,0.12669813632965088
1505,1186,0.4158393442630768,-0.5699518322944641,-1000.1102294921875,0.6454717516899109,-0.23471471667289734,0.21216371655464172
1504,1186,0.4158393442630768,-0.5699518322944641,-1000.1102294921875,0.6454717516899109,-0.23471471667289734,0.21216371655464172
1495,1186,0.4158393442630768,-0.5699518322944641,-1000.1102294921875,0.6454717516899109,-0.23471471667289734,0.21216371655464172
1517,1186,0.4158393442630768,-0.5699518322944641,-1000.1102294921875,0.6454717516899109,-0.23471471667289734,0.21216371655464172
1436,1186,0.4158393442630768,-0.5699518322944641,-1000.1102294921875,0.6454717516899109,-0.23471471667289734,0.21216371655464172
1435,1186,0.4158393442630768,-0.5699518322944641,-1000.1102294921875,0.6454717516899109,-0.23471471667289734,0.21216371655464172
1426,1186,0.4158393442630768,-0.5699518322944641,-1000.1102294921875,0.6454717516899109,-0.23471471667289734,0.21216371655464172
1448,1186,0.4158393442630768,-0.5699518322944641,-1000.1102294921875,0.6454717516899109,-0.23471471667289734,0.21216371655464172
1505,1187,0.28144025802612305,1.2699685096740723,-999.9498901367188,-0.04841843992471695,1.0886225700378418,0.14705337584018707
1510,1187,0.28144025802612305,1.2699685096740723,-999.9498901367188,-0.04841843992471695,1.0886225700378418,0.14705337584018707
1503,1187,0.28144025802612305,1.2699685096740723,-999.9498901367188,-0.04841843992471695,1.0886225700378418,0.14705337584018707
1502,1187,0.28144025802612305,1.2699685096740723,-999.9498901367188,-0.04841843992471695,1.0886225700378418,0.14705337584018707
1436,1187,0.28144025802612305,1.2699685096740723,-999.9498901367188,-0.04841843992471695,1.0886225700378418,0.14705337584018707
1441,1187,0.28144025802612305,1.2699685096740723,-999.9498901367188,-0.04841843992471695,1.0886225700378418,0.14705337584018707
1434,1187,0.28144025802612305,1.2699685096740723,-999.9498901367188,-0.04841843992471695,1.0886225700378418,0.14705337584018707
1433,1187,0.28144025802612305,1.2699685096740723,-999.9498901367188,-0.04841843992471695,1.0886225700378418,0.14705337584018707
1495,1188,-1.563313364982605,-1.0374873876571655,-999.9359741210938,0.39797964692115784,0.42854827642440796,-0.6834778785705566
1504,1188,-1.563313364982605,-1.0374873876571655,-999.9359741210938,0.39797964692115784,0.42854827642440796,-0.6834778785705566
1500,1188,-1.563313364982605,-1.0374873876571655,-999.9359741210938,0.39797964692115784,0.42854827642440796,-0.6834778785705566
1516,1188,-1.563313364982605,-1.0374873876571655,-999.9359741210938,0.39797964692115784,0.42854827642440796,-0.6834778785705566
1426,1188,-1.563313364982605,-1.0374873876571655,-999.9359741210938,0.39797964692115784,0.42854827642440796,-0.6834778785705566
1435,1188,-1.563313364982605,-1.0374873876571655,-999.9359741210938,0.39797964692115784,0.42854827642440796,-0.6834778785705566
1431,1188,-1.563313364982605,-1.0374873876571655,-999.9359741210938,0.39797964692115784,0.42854827642440796,-0.6834778785705566
1447,1188,-1.563313364982605,-1.0374873876571655,-999.9359741210938,0.39797964692115784,0.42854827642440796,-0.6834778785705566
1506,1189,-0.3092714548110962,-0.9834270477294922,-999.9664916992188,-0.35194042325019836,0.06777498126029968,-0.055394478142261505
1460,1189,-0.3092714548110962,-0.9834270477294922,-999.9664916992188,-0.35194042325019836,0.06777498126029968,-0.055394478142261505
1459,1189,-0.3092714548110962,-0.9834270477294922,-999.9664916992188,-0.35194042325019836,0.06777498126029968,-0.055394478142261505
1476,1189,-0.3092714548110962,-0.9834270477294922,-999.9664916992188,-0.35194042325019836,0.06777498126029968,-0.055394478142261505
1437,1189,-0.3092714548110962,-0.9834270477294922,-999.9664916992188,-0.35194042325019836,0.06777498126029968,-0.055394478142261505
1391,1189,-0.3092714548110962,-0.9834270477294922,-999.9664916992188,-0.35194042325019836,0.06777498126029968,-0.055394478142261505
1390,1189,-0.3092714548110962,-0.9834270477294922,-999.9664916992188,-0.35194042325019836,0.06777498126029968,-0.055394478142261505
1407,1189,-0.3092714548110962,-0.9834270477294922,-999.9664916992188,-0.35194042325019836,0.06777498126029968,-0.055394478142261505
1508,1190,-0.6088407039642334,-0.9996879696846008,-1000.0213012695312,-0.48912686109542847,-0.10010317713022232,0.09270760416984558
1451,1190,-0.6088407039642334,-0.9996879696846008,-1000.0213012695312,-0.48912686109542847,-0.10010317713022232,0.09270760416984558
1466,1190,-0.6088407039642334,-0.9996879696846008,-1000.0213012695312,-0.48912686109542847,-0.10010317713022232,0.09270760416984558
1486,1190,-0.6088407039642334,-0.9996879696846008,-1000.0213012695312,-0.48912686109542847,-0.10010317713022232,0.09270760416984558
1439,1190,-0.6088407039642334,-0.9996879696846008,-1000.0213012695312,-0.48912686109542847,-0.10010317713022232,0.09270760416984558
1382,1190,-0.6088407039642334,-0.9996879696846008,-1000.0213012695312,-0.48912686109542847,-0.10010317713022232,0.09270760416984558
1397,1190,-0.6088407039642334,-0.9996879696846008,-1000.0213012695312,-0.48912686109542847,-0.10010317713022232,0.09270760416984558
1417,1190,-0.6088407039642334,-0.9996879696846008,-1000.0213012695312,-0.48912686109542847,-0.10010317713022232,0.09270760416984558
1485,1191,-0.3381630480289459,-0.3952780067920685,-1000.7467651367188,0.517925500869751,0.5828677415847778,-0.24463601410388947
1509,1191,-0.3381630480289459,-0.3952780067920685,-1000.7467651367188,0.517925500869751,0.5828677415847778,-0.24463601410388947
1498,1191,-0.3381630480289459,-0.3952780067920685,-1000.7467651367188,0.517925500869751,0.5828677415847778,-0.24463601410388947
1486,1191,-0.3381630480289459,-0.3952780067920685,-1000.7467651367188,0.517925500869751,0.5828677415847778,-0.24463601410388947
1416,1191,-0.3381630480289459,-0.3952780067920685,-1000.7467651367188,0.517925500869751,0.5828677415847778,-0.24463601410388947
1440,1191,-0.3381630480289459,-0.3952780067920685,-1000.7467651367188,0.517925500869751,0.5828677415847778,-0.24463601410388947
1429,1191,-0.3381630480289459,-0.3952780067920685,-1000.7467651367188,0.517925500869751,0.5828677415847778,-0.24463601410388947
1417,1191,-0.3381630480289459,-0.3952780067920685,-1000.7467651367188,0.517925500869751,0.5828677415847778,-0.24463601410388947
1509,1192,-1.9440191984176636,-1.1234955787658691,-1000.37939453125,-0.4710143506526947,-1.2431011199951172,0.621611475944519
1492,1192,-1.9440191984176636,-1.1234955787658691,-1000.37939453125,-0.4710143506526947,-1.2431011199951172,0.621611475944519
1518,1192,-1.9440191984176636,-1.1234955787658691,-1000.37939453125,-0.4710143506526947,-1.2431011199951172,0.621611475944519
1503,1192,-1.9440191984176636,-1.1234955787658691,-1000.37939453125,-0.4710143506526947,-1.2431011199951172,0.621611475944519
1440,1192,-1.9440191984176636,-1.1234955787658691,-1000.37939453125,-0.4710143506526947,-1.2431011199951172,0.621611475944519
1423,1192,-1.9440191984176636,-1.1234955787658691,-1000.37939453125,-0.4710143506526947,-1.2431011199951172,0.621611475944519
1449,1192,-1.9440191984176636,-1.1234955787658691,-1000.37939453125,-0.4710143506526947,-1.2431011199951172,0.621611475944519
1434,1192,-1.9440191984176636,-1.1234955787658691,-1000.37939453125,-0.4710143506526947,-1.2431011199951172,0.621611475944519
1511,1193,0.7647647857666016,2.458118200302124,-998.7931518554688,0.005616857670247555,0.14113470911979675,0.21131962537765503
1472,1193,0.7647647857666016,2.458118200302124,-998.7931518554688,0.005616857670247555,0.14113470911979675,0.21131962537765503
1473,1193,0.7647647857666016,2.458118200302124,-998.7931518554688,0.005616857670247555,0.14113470911979675,0.21131962537765503
1497,1193,0.7647647857666016,2.458118200302124,-998.7931518554688,0.005616857670247555,0.14113470911979675,0.21131962537765503
1442,1193,0.7647647857666016,2.458118200302124,-998.7931518554688,0.005616857670247555,0.14113470911979675,0.21131962537765503
1403,1193,0.7647647857666016,2.458118200302124,-998.7931518554688,0.005616857670247555,0.14113470911979675,0.21131962537765503
1404,1193,0.7647647857666016,2.458118200302124,-998.7931518554688,0.005616857670247555,0.14113470911979675,0.21131962537765503
1428,1193,0.7647647857666016,2.458118200302124,-998.7931518554688,0.005616857670247555,0.14113470911979675,0.21131962537765503
1512,1194,0.3034997582435608,1.7228786945343018,-999.5457153320312,0.21612417697906494,-0.3503405749797821,-0.14920948445796967
1490,1194,0.3034997582435608,1.7228786945343018,-999.5457153320312,0.21612417697906494,-0.3503405749797821,-0.14920948445796967
1475,1194,0.3034997582435608,1.7228786945343018,-999.5457153320312,0.21612417697906494,-0.3503405749797821,-0.14920948445796967
1496,1194,0.3034997582435608,1.7228786945343018,-999.5457153320312,0.21612417697906494,-0.3503405749797821,-0.14920948445796967
1443,1194,0.3034997582435608,1.7228786945343018,-999.5457153320312,0.21612417697906494,-0.3503405749797821,-0.14920948445796967
1421,1194,0.3034997582435608,1.7228786945343018,-999.5457153320312,0.21612417697906494,-0.3503405749797821,-0.14920948445796967
1406,1194,0.3034997582435608,1.7228786945343018,-999.5457153320312,0.21612417697906494,-0.3503405749797821,-0.14920948445796967
1427,1194,0.3034997582435608,1.7228786945343018,-999.5457153320312,0.21612417697906494,-0.3503405749797821,-0.14920948445796967
1514,1195,0.9109665751457214,-0.359201043844223,-1000.1366577148438,-0.035486653447151184,-0.6952518224716187,0.06981844455003738
1489,1195,0.9109665751457214,-0.359201043844223,-1000.1366577148438,-0.035486653447151184,-0.6952518224716187,0.06981844455003738
1478,1195,0.9109665751457214,-0.359201043844223,-1000.1366577148438,-0.035486653447151184,-0.6952518224716187,0.06981844455003738
1493,1195,0.9109665751457214,-0.359201043844223,-1000.1366577148438,-0.035486653447151184,-0.6952518224716187,0.06981844455003738
1445,1195,0.9109665751457214,-0.359201043844223,-1000.1366577148438,-0.035486653447151184,-0.6952518224716187,0.06981844455003738
1420,1195,0.9109665751457214,-0.359201043844223,-1000.1366577148438,-0.035486653447151184,-0.6952518224716187,0.06981844455003738
1409,1195,0.9109665751457214,-0.359201043844223,-1000.1366577148438,-0.035486653447151184,-0.6952518224716187,0.06981844455003738
1424,1195,0.9109665751457214,-0.359201043844223,-1000.1366577148438,-0.035486653447151184,-0.6952518224716187,0.06981844455003738
1515,1196,1.1425925493240356,-0.3155527412891388,-1000.5418090820312,-0.4262894093990326,-0.5491831302642822,0.27454131841659546
1479,1196,1.1425925493240356,-0.3155527412891388,-1000.5418090820312,-0.4262894093990326,-0.5491831302642822,0.27454131841659546
1480,1196,1.1425925493240356,-0.3155527412891388,-1000.5418090820312,-0.4262894093990326,-0.5491831302642822,0.27454131841659546
1500,1196,1.1425925493240356,-0.3155527412891388,-1000.5418090820312,-0.4262894093990326,-0.5491831302642822,0.27454131841659546
1446,1196,1.1425925493240356,-0.3155527412891388,-1000.5418090820312,-0.4262894093990326,-0.5491831302642822,0.27454131841659546
1410,1196,1.1425925493240356,-0.3155527412891388,-1000.5418090820312,-0.4262894093990326,-0.5491831302642822,0.27454131841659546
1411,1196,1.1425925493240356,-0.3155527412891388,-1000.5418090820312,-0.4262894093990326,-0.5491831302642822,0.27454131841659546
1431,1196,1.1425925493240356,-0.3155527412891388,-1000.5418090820312,-0.4262894093990326,-0.5491831302642822,0.27454131841659546
1517,1197,-0.4087410271167755,0.3234296441078186,-1000.345458984375,-0.4279554486274719,-0.23253262042999268,0.1189921572804451
1482,1197,-0.4087410271167755,0.3234296441078186,-1000.345458984375,-0.4279554486274719,-0.23253262042999268,0.1189921572804451
1487,1197,-0.4087410271167755,0.3234296441078186,-1000.345458984375,-0.4279554486274719,-0.23253262042999268,0.1189921572804451
1499,1197,-0.4087410271167755,0.3234296441078186,-1000.345458984375,-0.4279554486274719,-0.23253262042999268,0.1189921572804451
1448,1197,-0.4087410271167755,0.3234296441078186,-1000.345458984375,-0.4279554486274719,-0.23253262042999268,0.1189921572804451
1413,1197,-0.4087410271167755,0.3234296441078186,-1000.345458984375,-0.4279554486274719,-0.23253262042999268,0.1189921572804451
1418,1197,-0.4087410271167755,0.3234296441078186,-1000.345458984375,-0.4279554486274719,-0.23253262042999268,0.1189921572804451
1430,1197,-0.4087410271167755,0.3234296441078186,-1000.345458984375,-0.4279554486274719,-0.23253262042999268,0.1189921572804451
1542,1198,0.14472152292728424,0.9545395374298096,-1000.0270385742188,-0.05034373700618744,0.13485488295555115,0.032254621386528015
1531,1198,0.14472152292728424,0.9545395374298096,-1000.0270385742188,-0.05034373700618744,0.13485488295555115,0.032254621386528015
1530,1198,0.14472152292728424,0.9545395374298096,-1000.0270385742188,-0.05034373700618744,0.13485488295555115,0.032254621386528015
1559,1198,0.14472152292728424,0.9545395374298096,-1000.0270385742188,-0.05034373700618744,0.13485488295555115,0.032254621386528015
1473,1198,0.14472152292728424,0.9545395374298096,-1000.0270385742188,-0.05034373700618744,0.13485488295555115,0.032254621386528015
1462,1198,0.14472152292728424,0.9545395374298096,-1000.0270385742188,-0.05034373700618744,0.13485488295555115,0.032254621386528015
1461,1198,0.14472152292728424,0.9545395374298096,-1000.0270385742188,-0.05034373700618744,0.13485488295555115,0.032254621386528015
1490,1198,0.14472152292728424,0.9545395374298096,-1000.0270385742188,-0.05034373700618744,0.13485488295555115,0.032254621386528015
1559,1199,0.3085622191429138,1.2033989429473877,-1000.0551147460938,-0.062268421053886414,-0.10961092263460159,-0.09214067459106445
1530,1199,0.3085622191429138,1.2033989429473877,-1000.0551147460938,-0.062268421053886414,-0.10961092263460159,-0.09214067459106445
1539,1199,0.3085622191429138,1.2033989429473877,-1000.0551147460938,-0.062268421053886414,-0.10961092263460159,-0.09214067459106445
1544,1199,0.3085622191429138,1.2033989429473877,-1000.0551147460938,-0.062268421053886414,-0.10961092263460159,-0.09214067459106445
1490,1199,0.3085622191429138,1.2033989429473877,-1000.0551147460938,-0.062268421053886414,-0.10961092263460159,-0.09214067459106445
1461,1199,0.3085622191429138,1.2033989429473877,-1000.0551147460938,-0.062268421053886414,-0.10961092263460159,-0.09214067459106445
1470,1199,0.3085622191429138,1.2033989429473877,-1000.0551147460938,-0.062268421053886414,-0.10961092263460159,-0.09214067459106445
1475,1199,0.3085622191429138,1.2033989429473877,-1000.0551147460938,-0.062268421053886414,-0.10961092263460159,-0.09214067459106445
1540,1200,0.5458844304084778,0.5532264113426208,-999.958740234375,-0.2846609354019165,0.10985392332077026,-0.1515272706747055
1560,1200,0.5458844304084778,0.5532264113426208,-999.958740234375,-0.2846609354019165,0.10985392332077026,-0.1515272706747055
1543,1200,0.5458844304084778,0.5532264113426208,-999.958740234375,-0.2846609354019165,0.10985392332077026,-0.1515272706747055
1533,1200,0.5458844304084778,0.5532264113426208,-999.958740234375,-0.2846609354019165,0.10985392332077026,-0.1515272706747055
1471,1200,0.5458844304084778,0.5532264113426208,-999.958740234375,-0.2846609354019165,0.10985392332077026,-0.1515272706747055
1491,1200,0.5458844304084778,0.5532264113426208,-999.958740234375,-0.2846609354019165,0.10985392332077026,-0.1515272706747055
1474,1200,0.5458844304084778,0.5532264113426208,-999.958740234375,-0.2846609354019165,0.10985392332077026,-0.1515272706747055
1464,1200,0.5458844304084778,0.5532264113426208,-999.958740234375,-0.2846609354019165,0.10985392332077026,-0.1515272706747055
1531,1201,0.3163798451423645,1.3787420988082886,-999.9000244140625,-0.13145793974399567,-0.004753118380904198,-0.059762969613075256
1542,1201,0.3163798451423645,1.3787420988082886,-999.9000244140625,-0.13145793974399567,-0.004753118380904198,-0.059762969613075256
1541,1201,0.3163798451423645,1.3787420988082886,-999.9000244140625,-0.13145793974399567,-0.004753118380904198,-0.059762969613075256
1532,1201,0.3163798451423645,1.3787420988082886,-999.9000244140625,-0.13145793974399567,-0.004753118380904198,-0.059762969613075256
1462,1201,0.3163798451423645,1.3787420988082886,-999.9000244140625,-0.13145793974399567,-0.004753118380904198,-0.059762969613075256
1473,1201,0.3163798451423645,1.3787420988082886,-999.9000244140625,-0.13145793974399567,-0.004753118380904198,-0.059762969613075256
1472,1201,0.3163798451423645,1.3787420988082886,-999.9000244140625,-0.13145793974399567,-0.004753118380904198,-0.059762969613075256
1463,1201,0.3163798451423645,1.3787420988082886,-999.9000244140625,-0.13145793974399567,-0.004753118380904198,-0.059762969613075256
1570,1202,0.7483582496643066,0.6810756325721741,-999.9367065429688,0.5056052803993225,-0.39488887786865234,-0.6985297799110413
1583,1202,0.7483582496643066,0.6810756325721741,-999.9367065429688,0.5056052803993225,-0.39488887786865234,-0.6985297799110413
1562,1202,0.7483582496643066,0.6810756325721741,-999.9367065429688,0.5056052803993225,-0.39488887786865234,-0.6985297799110413
1573,1202,0.7483582496643066,0.6810756325721741,-999.9367065429688,0.5056052803993225,-0.39488887786865234,-0.6985297799110413
1501,1202,0.7483582496643066,0.6810756325721741,-999.9367065429688,0.5056052803993225,-0.39488887786865234,-0.6985297799110413
1514,1202,0.7483582496643066,0.6810756325721741,-999.9367065429688,0.5056052803993225,-0.39488887786865234,-0.6985297799110413
1493,1202,0.7483582496643066,0.6810756325721741,-999.9367065429688,0.5056052803993225,-0.39488887786865234,-0.6985297799110413
1504,1202,0.7483582496643066,0.6810756325721741,-999.9367065429688,0.5056052803993225,-0.39488887786865234,-0.6985297799110413
1586,1203,-1.5515655279159546,-1.9781763553619385,-1000.5346069335938,0.13930411636829376,-0.07709719240665436,-0.14781294763088226
1564,1203,-1.5515655279159546,-1.9781763553619385,-1000.5346069335938,0.13930411636829376,-0.07709719240665436,-0.14781294763088226
1550,1203,-1.5515655279159546,-1.9781763553619385,-1000.5346069335938,0.13930411636829376,-0.07709719240665436,-0.14781294763088226
1551,1203,-1.5515655279159546,-1.9781763553619385,-1000.5346069335938,0.13930411636829376,-0.07709719240665436,-0.14781294763088226
1517,1203,-1.5515655279159546,-1.9781763553619385,-1000.5346069335938,0.13930411636829376,-0.07709719240665436,-0.14781294763088226
1495,1203,-1.5515655279159546,-1.9781763553619385,-1000.5346069335938,0.13930411636829376,-0.07709719240665436,-0.14781294763088226
1481,1203,-1.5515655279159546,-1.9781763553619385,-1000.5346069335938,0.13930411636829376,-0.07709719240665436,-0.14781294763088226
1482,1203,-1.5515655279159546,-1.9781763553619385,-1000.5346069335938,0.13930411636829376,-0.07709719240665436,-0.14781294763088226
1574,1204,-0.9758344292640686,-1.2568780183792114,-1000.2693481445312,0.3777342736721039,0.602743923664093,0.24402999877929688
1571,1204,-0.9758344292640686,-1.2568780183792114,-1000.2693481445312,0.3777342736721039,0.602743923664093,0.24402999877929688
1570,1204,-0.9758344292640686,-1.2568780183792114,-1000.2693481445312,0.3777342736721039,0.602743923664093,0.24402999877929688
1573,1204,-0.9758344292640686,-1.2568780183792114,-1000.2693481445312,0.3777342736721039,0.602743923664093,0.24402999877929688
1505,1204,-0.9758344292640686,-1.2568780183792114,-1000.2693481445312,0.3777342736721039,0.602743923664093,0.24402999877929688
1502,1204,-0.9758344292640686,-1.2568780183792114,-1000.2693481445312,0.3777342736721039,0.602743923664093,0.24402999877929688
1501,1204,-0.9758344292640686,-1.2568780183792114,-1000.2693481445312,0.3777342736721039,0.602743923664093,0.24402999877929688
1504,1204,-0.9758344292640686,-1.2568780183792114,-1000.2693481445312,0.3777342736721039,0.602743923664093,0.24402999877929688
1565,1205,1.190737009048462,2.1207735538482666,-999.7411499023438,0.2650187015533447,-0.4827130138874054,0.05450790002942085
1582,1205,1.190737009048462,2.1207735538482666,-999.7411499023438,0.2650187015533447,-0.4827130138874054,0.05450790002942085
1570,1205,1.190737009048462,2.1207735538482666,-999.7411499023438,0.2650187015533447,-0.4827130138874054,0.05450790002942085
1571,1205,1.190737009048462,2.1207735538482666,-999.7411499023438,0.2650187015533447,-0.4827130138874054,0.05450790002942085
1496,1205,1.190737009048462,2.1207735538482666,-999.7411499023438,0.2650187015533447,-0.4827130138874054,0.05450790002942085
1513,1205,1.190737009048462,2.1207735538482666,-999.7411499023438,0.2650187015533447,-0.4827130138874054,0.05450790002942085
1501,1205,1.190737009048462,2.1207735538482666,-999.7411499023438,0.2650187015533447,-0.4827130138874054,0.05450790002942085
1502,1205,1.190737009048462,2.1207735538482666,-999.7411499023438,0.2650187015533447,-0.4827130138874054,0.05450790002942085
1545,1206,-0.9141021966934204,-0.7281306385993958,-999.91064453125,-0.5290334224700928,-0.47490525245666504,0.5238978862762451
1558,1206,-0.9141021966934204,-0.7281306385993958,-999.91064453125,-0.5290334224700928,-0.47490525245666504,0.5238978862762451
1583,1206,-0.9141021966934204,-0.7281306385993958,-999.91064453125,-0.5290334224700928,-0.47490525245666504,0.5238978862762451
1570,1206,-0.9141021966934204,-0.7281306385993958,-999.91064453125,-0.5290334224700928,-0.47490525245666504,0.5238978862762451
1476,1206,-0.9141021966934204,-0.7281306385993958,-999.91064453125,-0.5290334224700928,-0.47490525245666504,0.5238978862762451
1489,1206,-0.9141021966934204,-0.7281306385993958,-999.91064453125,-0.5290334224700928,-0.47490525245666504,0.5238978862762451
1514,1206,-0.9141021966934204,-0.7281306385993958,-999.91064453125,-0.5290334224700928,-0.47490525245666504,0.5238978862762451
1501,1206,-0.9141021966934204,-0.7281306385993958,-999.91064453125,-0.5290334224700928,-0.47490525245666504,0.5238978862762451
1585,1207,-3.020491123199463,-1.1760809421539307,-1000.7825927734375,-0.5122466683387756,0.12532605230808258,-0.3798721134662628
1569,1207,-3.020491123199463,-1.1760809421539307,-1000.7825927734375,-0.5122466683387756,0.12532605230808258,-0.3798721134662628
1549,1207,-3.020491123199463,-1.1760809421539307,-1000.7825927734375,-0.5122466683387756,0.12532605230808258,-0.3798721134662628
1557,1207,-3.020491123199463,-1.1760809421539307,-1000.7825927734375,-0.5122466683387756,0.12532605230808258,-0.3798721134662628
1516,1207,-3.020491123199463,-1.1760809421539307,-1000.7825927734375,-0.5122466683387756,0.12532605230808258,-0.3798721134662628
1500,1207,-3.020491123199463,-1.1760809421539307,-1000.7825927734375,-0.5122466683387756,0.12532605230808258,-0.3798721134662628
1480,1207,-3.020491123199463,-1.1760809421539307,-1000.7825927734375,-0.5122466683387756,0.12532605230808258,-0.3798721134662628
1488,1207,-3.020491123199463,-1.1760809421539307,-1000.7825927734375,-0.5122466683387756,0.12532605230808258,-0.3798721134662628
1579,1208,0.9049078226089478,1.1877572536468506,-999.3709716796875,0.3943203091621399,1.1598843336105347,-0.9253170490264893
1574,1208,0.9049078226089478,1.1877572536468506,-999.3709716796875,0.3943203091621399,1.1598843336105347,-0.9253170490264893
1553,1208,0.9049078226089478,1.1877572536468506,-999.3709716796875,0.3943203091621399,1.1598843336105347,-0.9253170490264893
1567,1208,0.9049078226089478,1.1877572536468506,-999.3709716796875,0.3943203091621399,1.1598843336105347,-0.9253170490264893
1510,1208,0.9049078226089478,1.1877572536468506,-999.3709716796875,0.3943203091621399,1.1598843336105347,-0.9253170490264893
1505,1208,0.9049078226089478,1.1877572536468506,-999.3709716796875,0.3943203091621399,1.1598843336105347,-0.9253170490264893
1484,1208,0.9049078226089478,1.1877572536468506,-999.3709716796875,0.3943203091621399,1.1598843336105347,-0.9253170490264893
1498,1208,0.9049078226089478,1.1877572536468506,-999.3709716796875,0.3943203091621399,1.1598843336105347,-0.9253170490264893
1553,1209,-0.8691893219947815,-0.35243239998817444,-999.8036499023438,-0.7366628050804138,0.08068960160017014,0.46090513467788696
1568,1209,-0.8691893219947815,-0.35243239998817444,-999.8036499023438,-0.7366628050804138,0.08068960160017014,0.46090513467788696
1576,1209,-0.8691893219947815,-0.35243239998817444,-999.8036499023438,-0.7366628050804138,0.08068960160017014,0.46090513467788696
1577,1209,-0.8691893219947815,-0.35243239998817444,-999.8036499023438,-0.7366628050804138,0.08068960160017014,0.46090513467788696
1484,1209,-0.8691893219947815,-0.35243239998817444,-999.8036499023438,-0.7366628050804138,0.08068960160017014,0.46090513467788696
1499,1209,-0.8691893219947815,-0.35243239998817444,-999.8036499023438,-0.7366628050804138,0.08068960160017014,0.46090513467788696
1507,1209,-0.8691893219947815,-0.35243239998817444,-999.8036499023438,-0.7366628050804138,0.08068960160017014,0.46090513467788696
1508,1209,-0.8691893219947815,-0.35243239998817444,-999.8036499023438,-0.7366628050804138,0.08068960160017014,0.46090513467788696
1560,1210,-0.339727520942688,-0.29789650440216064,-998.7252807617188,0.9784978032112122,-0.16455619037151337,0.2142455279827118
1541,1210,-0.339727520942688,-0.29789650440216064,-998.7252807617188,0.9784978032112122,-0.16455619037151337,0.2142455279827118
1580,1210,-0.339727520942688,-0.29789650440216064,-998.7252807617188,0.9784978032112122,-0.16455619037151337,0.2142455279827118
1563,1210,-0.339727520942688,-0.29789650440216064,-998.7252807617188,0.9784978032112122,-0.16455619037151337,0.2142455279827118
1491,1210,-0.339727520942688,-0.29789650440216064,-998.7252807617188,0.9784978032112122,-0.16455619037151337,0.2142455279827118
1472,1210,-0.339727520942688,-0.29789650440216064,-998.7252807617188,0.9784978032112122,-0.16455619037151337,0.2142455279827118
1511,1210,-0.339727520942688,-0.29789650440216064,-998.7252807617188,0.9784978032112122,-0.16455619037151337,0.2142455279827118
1494,1210,-0.339727520942688,-0.29789650440216064,-998.7252807617188,0.9784978032112122,-0.16455619037151337,0.2142455279827118
1587,1211,-1.3657267093658447,-1.6131484508514404,-1001.2114868164062,0.3769238591194153,-0.3464067876338959,-0.26974427700042725
1543,1211,-1.3657267093658447,-1.6131484508514404,-1001.2114868164062,0.3769238591194153,-0.3464067876338959,-0.26974427700042725
1560,1211,-1.3657267093658447,-1.6131484508514404,-1001.2114868164062,0.3769238591194153,-0.3464067876338959,-0.26974427700042725
1563,1211,-1.3657267093658447,-1.6131484508514404,-1001.2114868164062,0.3769238591194153,-0.3464067876338959,-0.26974427700042725
1518,1211,-1.3657267093658447,-1.6131484508514404,-1001.2114868164062,0.3769238591194153,-0.3464067876338959,-0.26974427700042725
1474,1211,-1.3657267093658447,-1.6131484508514404,-1001.2114868164062,0.3769238591194153,-0.3464067876338959,-0.26974427700042725
1491,1211,-1.3657267093658447,-1.6131484508514404,-1001.2114868164062,0.3769238591194153,-0.3464067876338959,-0.26974427700042725
1494,1211,-1.3657267093658447,-1.6131484508514404,-1001.2114868164062,0.3769238591194153,-0.3464067876338959,-0.26974427700042725
1547,1212,-1.6858229637145996,-0.6974541544914246,-1000.5055541992188,-0.3144035339355469,-0.14048975706100464,0.6319091320037842
1548,1212,-1.6858229637145996,-0.6974541544914246,-1000.5055541992188,-0.3144035339355469,-0.14048975706100464,0.6319091320037842
1584,1212,-1.6858229637145996,-0.6974541544914246,-1000.5055541992188,-0.3144035339355469,-0.14048975706100464,0.6319091320037842
1562,1212,-1.6858229637145996,-0.6974541544914246,-1000.5055541992188,-0.3144035339355469,-0.14048975706100464,0.6319091320037842
1478,1212,-1.6858229637145996,-0.6974541544914246,-1000.5055541992188,-0.3144035339355469,-0.14048975706100464,0.6319091320037842
1479,1212,-1.6858229637145996,-0.6974541544914246,-1000.5055541992188,-0.3144035339355469,-0.14048975706100464,0.6319091320037842
1515,1212,-1.6858229637145996,-0.6974541544914246,-1000.5055541992188,-0.3144035339355469,-0.14048975706100464,0.6319091320037842
1493,1212,-1.6858229637145996,-0.6974541544914246,-1000.5055541992188,-0.3144035339355469,-0.14048975706100464,0.6319091320037842
1532,1213,0.44832974672317505,0.9855793714523315,-1000.0435180664062,-0.6053436994552612,0.03295250982046127,0.11110136657953262
1541,1213,0.44832974672317505,0.9855793714523315,-1000.0435180664062,-0.6053436994552612,0.03295250982046127,0.11110136657953262
1560,1213,0.44832974672317505,0.9855793714523315,-1000.0435180664062,-0.6053436994552612,0.03295250982046127,0.11110136657953262
1540,1213,0.44832974672317505,0.9855793714523315,-1000.0435180664062,-0.6053436994552612,0.03295250982046127,0.11110136657953262
1463,1213,0.44832974672317505,0.9855793714523315,-1000.0435180664062,-0.6053436994552612,0.03295250982046127,0.11110136657953262
1472,1213,0.44832974672317505,0.9855793714523315,-1000.0435180664062,-0.6053436994552612,0.03295250982046127,0.11110136657953262
1491,1213,0.44832974672317505,0.9855793714523315,-1000.0435180664062,-0.6053436994552612,0.03295250982046127,0.11110136657953262
1471,1213,0.44832974672317505,0.9855793714523315,-1000.0435180664062,-0.6053436994552612,0.03295250982046127,0.11110136657953262
1529,1214,0.4802590012550354,1.9938715696334839,-999.894775390625,-0.05574282258749008,0.039231330156326294,-0.005319443065673113
1575,1214,0.4802590012550354,1.9938715696334839,-999.894775390625,-0.05574282258749008,0.039231330156326294,-0.005319443065673113
1544,1214,0.4802590012550354,1.9938715696334839,-999.894775390625,-0.05574282258749008,0.039231330156326294,-0.005319443065673113
1539,1214,0.4802590012550354,1.9938715696334839,-999.894775390625,-0.05574282258749008,0.039231330156326294,-0.005319443065673113
1460,1214,0.4802590012550354,1.9938715696334839,-999.894775390625,-0.05574282258749008,0.039231330156326294,-0.005319443065673113
1506,1214,0.4802590012550354,1.9938715696334839,-999.894775390625,-0.05574282258749008,0.039231330156326294,-0.005319443065673113
1475,1214,0.4802590012550354,1.9938715696334839,-999.894775390625,-0.05574282258749008,0.039231330156326294,-0.005319443065673113
1470,1214,0.4802590012550354,1.9938715696334839,-999.894775390625,-0.05574282258749008,0.039231330156326294,-0.005319443065673113
1545,1215,0.8363478779792786,0.25203895568847656,-1000.0142211914062,0.2981148064136505,0.0846206545829773,-0.16170385479927063
1528,1215,0.8363478779792786,0.25203895568847656,-1000.0142211914062,0.2981148064136505,0.0846206545829773,-0.16170385479927063
1538,1215,0.8363478779792786,0.25203895568847656,-1000.0142211914062,0.2981148064136505,0.0846206545829773,-0.16170385479927063
1558,1215,0.8363478779792786,0.25203895568847656,-1000.0142211914062,0.2981148064136505,0.0846206545829773,-0.16170385479927063
1476,1215,0.8363478779792786,0.25203895568847656,-1000.0142211914062,0.2981148064136505,0.0846206545829773,-0.16170385479927063
1459,1215,0.8363478779792786,0.25203895568847656,-1000.0142211914062,0.2981148064136505,0.0846206545829773,-0.16170385479927063
1469,1215,0.8363478779792786,0.25203895568847656,-1000.0142211914062,0.2981148064136505,0.0846206545829773,-0.16170385479927063
1489,1215,0.8363478779792786,0.25203895568847656,-1000.0142211914062,0.2981148064136505,0.0846206545829773,-0.16170385479927063
1546,1216,1.2288689613342285,0.18298494815826416,-1000.09619140625,-0.06811972707509995,0.11929058283567429,0.07173614948987961
1534,1216,1.2288689613342285,0.18298494815826416,-1000.09619140625,-0.06811972707509995,0.11929058283567429,0.07173614948987961
1533,1216,1.2288689613342285,0.18298494815826416,-1000.09619140625,-0.06811972707509995,0.11929058283567429,0.07173614948987961
1543,1216,1.2288689613342285,0.18298494815826416,-1000.09619140625,-0.06811972707509995,0.11929058283567429,0.07173614948987961
1477,1216,1.2288689613342285,0.18298494815826416,-1000.09619140625,-0.06811972707509995,0.11929058283567429,0.07173614948987961
1465,1216,1.2288689613342285,0.18298494815826416,-1000.09619140625,-0.06811972707509995,0.11929058283567429,0.07173614948987961
1464,1216,1.2288689613342285,0.18298494815826416,-1000.09619140625,-0.06811972707509995,0.11929058283567429,0.07173614948987961
1474,1216,1.2288689613342285,0.18298494815826416,-1000.09619140625,-0.06811972707509995,0.11929058283567429,0.07173614948987961
1558,1217,0.8017913699150085,-0.06610052287578583,-1000.0342407226562,-0.04595409333705902,-0.13888609409332275,0.08035668730735779
1538,1217,0.8017913699150085,-0.06610052287578583,-1000.0342407226562,-0.04595409333705902,-0.13888609409332275,0.08035668730735779
1527,1217,0.8017913699150085,-0.06610052287578583,-1000.0342407226562,-0.04595409333705902,-0.13888609409332275,0.08035668730735779
1547,1217,0.8017913699150085,-0.06610052287578583,-1000.0342407226562,-0.04595409333705902,-0.13888609409332275,0.08035668730735779
1489,1217,0.8017913699150085,-0.06610052287578583,-1000.0342407226562,-0.04595409333705902,-0.13888609409332275,0.08035668730735779
1469,1217,0.8017913699150085,-0.06610052287578583,-1000.0342407226562,-0.04595409333705902,-0.13888609409332275,0.08035668730735779
1458,1217,0.8017913699150085,-0.06610052287578583,-1000.0342407226562,-0.04595409333705902,-0.13888609409332275,0.08035668730735779
1478,1217,0.8017913699150085,-0.06610052287578583,-1000.0342407226562,-0.04595409333705902,-0.13888609409332275,0.08035668730735779
1582,1218,-0.36465761065483093,-0.9558188915252686,-1000.1102905273438,-0.800388753414154,0.43065309524536133,-0.20368164777755737
1575,1218,-0.36465761065483093,-0.9558188915252686,-1000.1102905273438,-0.800388753414154,0.43065309524536133,-0.20368164777755737
1545,1218,-0.36465761065483093,-0.9558188915252686,-1000.1102905273438,-0.800388753414154,0.43065309524536133,-0.20368164777755737
1570,1218,-0.36465761065483093,-0.9558188915252686,-1000.1102905273438,-0.800388753414154,0.43065309524536133,-0.20368164777755737
1513,1218,-0.36465761065483093,-0.9558188915252686,-1000.1102905273438,-0.800388753414154,0.43065309524536133,-0.20368164777755737
1506,1218,-0.36465761065483093,-0.9558188915252686,-1000.1102905273438,-0.800388753414154,0.43065309524536133,-0.20368164777755737
1476,1218,-0.36465761065483093,-0.9558188915252686,-1000.1102905273438,-0.800388753414154,0.43065309524536133,-0.20368164777755737
1501,1218,-0.36465761065483093,-0.9558188915252686,-1000.1102905273438,-0.800388753414154,0.43065309524536133,-0.20368164777755737
1547,1219,0.527412474155426,0.06958639621734619,-999.9730224609375,-0.12575577199459076,-0.04674302041530609,-0.21520203351974487
1527,1219,0.527412474155426,0.06958639621734619,-999.9730224609375,-0.12575577199459076,-0.04674302041530609,-0.21520203351974487
1526,1219,0.527412474155426,0.06958639621734619,-999.9730224609375,-0.12575577199459076,-0.04674302041530609,-0.21520203351974487
1548,1219,0.527412474155426,0.06958639621734619,-999.9730224609375,-0.12575577199459076,-0.04674302041530609,-0.21520203351974487
1478,1219,0.527412474155426,0.06958639621734619,-999.9730224609375,-0.12575577199459076,-0.04674302041530609,-0.21520203351974487
1458,1219,0.527412474155426,0.06958639621734619,-999.9730224609375,-0.12575577199459076,-0.04674302041530609,-0.21520203351974487
1457,1219,0.527412474155426,0.06958639621734619,-999.9730224609375,-0.12575577199459076,-0.04674302041530609,-0.21520203351974487
1479,1219,0.527412474155426,0.06958639621734619,-999.9730224609375,-0.12575577199459076,-0.04674302041530609,-0.21520203351974487
1548,1220,0.892848789691925,0.1248793751001358,-1000.0968627929688,0.03103935346007347,-0.03937677666544914,0.20160475373268127
1526,1220,0.892848789691925,0.1248793751001358,-1000.0968627929688,0.03103935346007347,-0.03937677666544914,0.20160475373268127
1525,1220,0.892848789691925,0.1248793751001358,-1000.0968627929688,0.03103935346007347,-0.03937677666544914,0.20160475373268127
1549,1220,0.892848789691925,0.1248793751001358,-1000.0968627929688,0.03103935346007347,-0.03937677666544914,0.20160475373268127
1479,1220,0.892848789691925,0.1248793751001358,-1000.0968627929688,0.03103935346007347,-0.03937677666544914,0.20160475373268127
1457,1220,0.892848789691925,0.1248793751001358,-1000.0968627929688,0.03103935346007347,-0.03937677666544914,0.20160475373268127
1456,1220,0.892848789691925,0.1248793751001358,-1000.0968627929688,0.03103935346007347,-0.03937677666544914,0.20160475373268127
1480,1220,0.892848789691925,0.1248793751001358,-1000.0968627929688,0.03103935346007347,-0.03937677666544914,0.20160475373268127
1579,1221,-0.413425475358963,1.0199506282806396,-1000.6172485351562,0.44886642694473267,0.014409109950065613,1.1259595155715942
1567,1221,-0.413425475358963,1.0199506282806396,-1000.6172485351562,0.44886642694473267,0.014409109950065613,1.1259595155715942
1578,1221,-0.413425475358963,1.0199506282806396,-1000.6172485351562,0.44886642694473267,0.014409109950065613,1.1259595155715942
1572,1221,-0.413425475358963,1.0199506282806396,-1000.6172485351562,0.44886642694473267,0.014409109950065613,1.1259595155715942
1510,1221,-0.413425475358963,1.0199506282806396,-1000.6172485351562,0.44886642694473267,0.014409109950065613,1.1259595155715942
1498,1221,-0.413425475358963,1.0199506282806396,-1000.6172485351562,0.44886642694473267,0.014409109950065613,1.1259595155715942
1509,1221,-0.413425475358963,1.0199506282806396,-1000.6172485351562,0.44886642694473267,0.014409109950065613,1.1259595155715942
1503,1221,-0.413425475358963,1.0199506282806396,-1000.6172485351562,0.44886642694473267,0.014409109950065613,1.1259595155715942
1534,1222,1.2524704933166504,0.5884694457054138,-999.9348754882812,0.39168691635131836,0.0669635459780693,-0.13357220590114594
1546,1222,1.2524704933166504,0.5884694457054138,-999.9348754882812,0.39168691635131836,0.0669635459780693,-0.13357220590114594
1554,1222,1.2524704933166504,0.5884694457054138,-999.9348754882812,0.39168691635131836,0.0669635459780693,-0.13357220590114594
1519,1222,1.2524704933166504,0.5884694457054138,-999.9348754882812,0.39168691635131836,0.0669635459780693,-0.13357220590114594
1465,1222,1.2524704933166504,0.5884694457054138,-999.9348754882812,0.39168691635131836,0.0669635459780693,-0.13357220590114594
1477,1222,1.2524704933166504,0.5884694457054138,-999.9348754882812,0.39168691635131836,0.0669635459780693,-0.13357220590114594
1485,1222,1.2524704933166504,0.5884694457054138,-999.9348754882812,0.39168691635131836,0.0669635459780693,-0.13357220590114594
1450,1222,1.2524704933166504,0.5884694457054138,-999.9348754882812,0.39168691635131836,0.0669635459780693,-0.13357220590114594
1549,1223,1.2317196130752563,0.13456423580646515,-999.9025268554688,0.07218539714813232,-0.12532579898834229,-0.07977496832609177
1525,1223,1.2317196130752563,0.13456423580646515,-999.9025268554688,0.07218539714813232,-0.12532579898834229,-0.07977496832609177
1537,1223,1.2317196130752563,0.13456423580646515,-999.9025268554688,0.07218539714813232,-0.12532579898834229,-0.07977496832609177
1557,1223,1.2317196130752563,0.13456423580646515,-999.9025268554688,0.07218539714813232,-0.12532579898834229,-0.07977496832609177
1480,1223,1.2317196130752563,0.13456423580646515,-999.9025268554688,0.07218539714813232,-0.12532579898834229,-0.07977496832609177
1456,1223,1.2317196130752563,0.13456423580646515,-999.9025268554688,0.07218539714813232,-0.12532579898834229,-0.07977496832609177
1468,1223,1.2317196130752563,0.13456423580646515,-999.9025268554688,0.07218539714813232,-0.12532579898834229,-0.07977496832609177
1488,1223,1.2317196130752563,0.13456423580646515,-999.9025268554688,0.07218539714813232,-0.12532579898834229,-0.07977496832609177
1557,1224,0.9370653033256531,0.1745104342699051,-1000.1561279296875,-0.4377131760120392,0.039550408720970154,0.18891407549381256
1537,1224,0.9370653033256531,0.1745104342699051,-1000.1561279296875,-0.4377131760120392,0.039550408720970154,0.18891407549381256
1524,1224,0.9370653033256531,0.1745104342699051,-1000.1561279296875,-0.4377131760120392,0.039550408720970154,0.18891407549381256
1550,1224,0.9370653033256531,0.1745104342699051,-1000.1561279296875,-0.4377131760120392,0.039550408720970154,0.18891407549381256
1488,1224,0.9370653033256531,0.1745104342699051,-1000.1561279296875,-0.4377131760120392,0.039550408720970154,0.18891407549381256
1468,1224,0.9370653033256531,0.1745104342699051,-1000.1561279296875,-0.4377131760120392,0.039550408720970154,0.18891407549381256
1455,1224,0.9370653033256531,0.1745104342699051,-1000.1561279296875,-0.4377131760120392,0.039550408720970154,0.18891407549381256
1481,1224,0.9370653033256531,0.1745104342699051,-1000.1561279296875,-0.4377131760120392,0.039550408720970154,0.18891407549381256
1550,1225,0.7541871666908264,1.0590935945510864,-999.8648681640625,-0.4364131689071655,-0.0729316771030426,-0.10457176715135574
1524,1225,0.7541871666908264,1.0590935945510864,-999.8648681640625,-0.4364131689071655,-0.0729316771030426,-0.10457176715135574
1523,1225,0.7541871666908264,1.0590935945510864,-999.8648681640625,-0.4364131689071655,-0.0729316771030426,-0.10457176715135574
1551,1225,0.7541871666908264,1.0590935945510864,-999.8648681640625,-0.4364131689071655,-0.0729316771030426,-0.10457176715135574
1481,1225,0.7541871666908264,1.0590935945510864,-999.8648681640625,-0.4364131689071655,-0.0729316771030426,-0.10457176715135574
1455,1225,0.7541871666908264,1.0590935945510864,-999.8648681640625,-0.4364131689071655,-0.0729316771030426,-0.10457176715135574
1454,1225,0.7541871666908264,1.0590935945510864,-999.8648681640625,-0.4364131689071655,-0.0729316771030426,-0.10457176715135574
1482,1225,0.7541871666908264,1.0590935945510864,-999.8648681640625,-0.4364131689071655,-0.0729316771030426,-0.10457176715135574
1551,1226,0.24291126430034637,1.1221644878387451,-1000.1387329101562,-0.13068708777427673,-0.008157145231962204,0.1462220996618271
1523,1226,0.24291126430034637,1.1221644878387451,-1000.1387329101562,-0.13068708777427673,-0.008157145231962204,0.1462220996618271
1536,1226,0.24291126430034637,1.1221644878387451,-1000.1387329101562,-0.13068708777427673,-0.008157145231962204,0.1462220996618271
1556,1226,0.24291126430034637,1.1221644878387451,-1000.1387329101562,-0.13068708777427673,-0.008157145231962204,0.1462220996618271
1482,1226,0.24291126430034637,1.1221644878387451,-1000.1387329101562,-0.13068708777427673,-0.008157145231962204,0.1462220996618271
1454,1226,0.24291126430034637,1.1221644878387451,-1000.1387329101562,-0.13068708777427673,-0.008157145231962204,0.1462220996618271
1467,1226,0.24291126430034637,1.1221644878387451,-1000.1387329101562,-0.13068708777427673,-0.008157145231962204,0.1462220996618271
1487,1226,0.24291126430034637,1.1221644878387451,-1000.1387329101562,-0.13068708777427673,-0.008157145231962204,0.1462220996618271
1556,1227,0.3656931221485138,1.1416655778884888,-999.880859375,-0.007950342260301113,-0.10365239530801773,0.1716216802597046
1536,1227,0.3656931221485138,1.1416655778884888,-999.880859375,-0.007950342260301113,-0.10365239530801773,0.1716216802597046
1522,1227,0.3656931221485138,1.1416655778884888,-999.880859375,-0.007950342260301113,-0.10365239530801773,0.1716216802597046
1552,1227,0.3656931221485138,1.1416655778884888,-999.880859375,-0.007950342260301113,-0.10365239530801773,0.1716216802597046
1487,1227,0.3656931221485138,1.1416655778884888,-999.880859375,-0.007950342260301113,-0.10365239530801773,0.1716216802597046
1467,1227,0.3656931221485138,1.1416655778884888,-999.880859375,-0.007950342260301113,-0.10365239530801773,0.1716216802597046
1453,1227,0.3656931221485138,1.1416655778884888,-999.880859375,-0.007950342260301113,-0.10365239530801773,0.1716216802597046
1483,1227,0.3656931221485138,1.1416655778884888,-999.880859375,-0.007950342260301113,-0.10365239530801773,0.1716216802597046
1576,1228,1.109379529953003,1.3135099411010742,-999.8865356445312,0.5093919038772583,-0.12733712792396545,0.044936105608940125
1521,1228,1.109379529953003,1.3135099411010742,-999.8865356445312,0.5093919038772583,-0.12733712792396545,0.044936105608940125
1520,1228,1.109379529953003,1.3135099411010742,-999.8865356445312,0.5093919038772583,-0.12733712792396545,0.044936105608940125
1577,1228,1.109379529953003,1.3135099411010742,-999.8865356445312,0.5093919038772583,-0.12733712792396545,0.044936105608940125
1507,1228,1.109379529953003,1.3135099411010742,-999.8865356445312,0.5093919038772583,-0.12733712792396545,0.044936105608940125
1452,1228,1.109379529953003,1.3135099411010742,-999.8865356445312,0.5093919038772583,-0.12733712792396545,0.044936105608940125
1451,1228,1.109379529953003,1.3135099411010742,-999.8865356445312,0.5093919038772583,-0.12733712792396545,0.044936105608940125
1508,1228,1.109379529953003,1.3135099411010742,-999.8865356445312,0.5093919038772583,-0.12733712792396545,0.044936105608940125
1555,1229,0.3667698800563812,0.44311729073524475,-1000.0691528320312,0.32841405272483826,0.10931660234928131,0.14019882678985596
1535,1229,0.3667698800563812,0.44311729073524475,-1000.0691528320312,0.32841405272483826,0.10931660234928131,0.14019882678985596
1519,1229,0.3667698800563812,0.44311729073524475,-1000.0691528320312,0.32841405272483826,0.10931660234928131,0.14019882678985596
1554,1229,0.3667698800563812,0.44311729073524475,-1000.0691528320312,0.32841405272483826,0.10931660234928131,0.14019882678985596
1486,1229,0.3667698800563812,0.44311729073524475,-1000.0691528320312,0.32841405272483826,0.10931660234928131,0.14019882678985596
1466,1229,0.3667698800563812,0.44311729073524475,-1000.0691528320312,0.32841405272483826,0.10931660234928131,0.14019882678985596
1450,1229,0.3667698800563812,0.44311729073524475,-1000.0691528320312,0.32841405272483826,0.10931660234928131,0.14019882678985596
1485,1229,0.3667698800563812,0.44311729073524475,-1000.0691528320312,0.32841405272483826,0.10931660234928131,0.14019882678985596
1578,1230,-2.6034064292907715,-2.4281303882598877,-1001.3407592773438,-0.5315611362457275,-0.07491222769021988,-0.54287189245224
1554,1230,-2.6034064292907715,-2.4281303882598877,-1001.3407592773438,-0.5315611362457275,-0.07491222769021988,-0.54287189245224
1546,1230,-2.6034064292907715,-2.4281303882598877,-1001.3407592773438,-0.5315611362457275,-0.07491222769021988,-0.54287189245224
1561,1230,-2.6034064292907715,-2.4281303882598877,-1001.3407592773438,-0.5315611362457275,-0.07491222769021988,-0.54287189245224
1509,1230,-2.6034064292907715,-2.4281303882598877,-1001.3407592773438,-0.5315611362457275,-0.07491222769021988,-0.54287189245224
1485,1230,-2.6034064292907715,-2.4281303882598877,-1001.3407592773438,-0.5315611362457275,-0.07491222769021988,-0.54287189245224
1477,1230,-2.6034064292907715,-2.4281303882598877,-1001.3407592773438,-0.5315611362457275,-0.07491222769021988,-0.54287189245224
1492,1230,-2.6034064292907715,-2.4281303882598877,-1001.3407592773438,-0.5315611362457275,-0.07491222769021988,-0.54287189245224
1577,1231,-1.2809524536132812,-2.328094244003296,-1000.7017211914062,-0.30182018876075745,-0.08169565349817276,-0.3515636622905731
1555,1231,-1.2809524536132812,-2.328094244003296,-1000.7017211914062,-0.30182018876075745,-0.08169565349817276,-0.3515636622905731
1567,1231,-1.2809524536132812,-2.328094244003296,-1000.7017211914062,-0.30182018876075745,-0.08169565349817276,-0.3515636622905731
1553,1231,-1.2809524536132812,-2.328094244003296,-1000.7017211914062,-0.30182018876075745,-0.08169565349817276,-0.3515636622905731
1508,1231,-1.2809524536132812,-2.328094244003296,-1000.7017211914062,-0.30182018876075745,-0.08169565349817276,-0.3515636622905731
1486,1231,-1.2809524536132812,-2.328094244003296,-1000.7017211914062,-0.30182018876075745,-0.08169565349817276,-0.3515636622905731
1498,1231,-1.2809524536132812,-2.328094244003296,-1000.7017211914062,-0.30182018876075745,-0.08169565349817276,-0.3515636622905731
1484,1231,-1.2809524536132812,-2.328094244003296,-1000.7017211914062,-0.30182018876075745,-0.08169565349817276,-0.3515636622905731
1552,1232,0.29609695076942444,0.831912100315094,-1000.082275390625,0.4155257046222687,0.10304265469312668,0.0622284933924675
1522,1232,0.29609695076942444,0.831912100315094,-1000.082275390625,0.4155257046222687,0.10304265469312668,0.0622284933924675
1521,1232,0.29609695076942444,0.831912100315094,-1000.082275390625,0.4155257046222687,0.10304265469312668,0.0622284933924675
1576,1232,0.29609695076942444,0.831912100315094,-1000.082275390625,0.4155257046222687,0.10304265469312668,0.0622284933924675
1483,1232,0.29609695076942444,0.831912100315094,-1000.082275390625,0.4155257046222687,0.10304265469312668,0.0622284933924675
1453,1232,0.29609695076942444,0.831912100315094,-1000.082275390625,0.4155257046222687,0.10304265469312668,0.0622284933924675
1452,1232,0.29609695076942444,0.831912100315094,-1000.082275390625,0.4155257046222687,0.10304265469312668,0.0622284933924675
1507,1232,0.29609695076942444,0.831912100315094,-1000.082275390625,0.4155257046222687,0.10304265469312668,0.0622284933924675
1561,1233,-0.8466647267341614,1.065148115158081,-998.520751953125,0.1415460854768753,-0.771036684513092,0.8532241582870483
1546,1233,-0.8466647267341614,1.065148115158081,-998.520751953125,0.1415460854768753,-0.771036684513092,0.8532241582870483
1543,1233,-0.8466647267341614,1.065148115158081,-998.520751953125,0.1415460854768753,-0.771036684513092,0.8532241582870483
1587,1233,-0.8466647267341614,1.065148115158081,-998.520751953125,0.1415460854768753,-0.771036684513092,0.8532241582870483
1492,1233,-0.8466647267341614,1.065148115158081,-998.520751953125,0.1415460854768753,-0.771036684513092,0.8532241582870483
1477,1233,-0.8466647267341614,1.065148115158081,-998.520751953125,0.1415460854768753,-0.771036684513092,0.8532241582870483
1474,1233,-0.8466647267341614,1.065148115158081,-998.520751953125,0.1415460854768753,-0.771036684513092,0.8532241582870483
1518,1233,-0.8466647267341614,1.065148115158081,-998.520751953125,0.1415460854768753,-0.771036684513092,0.8532241582870483
1572,1234,0.11122371256351471,-0.36125996708869934,-1000.1708374023438,-0.8251607418060303,0.13070157170295715,0.0843614786863327
1587,1234,0.11122371256351471,-0.36125996708869934,-1000.1708374023438,-0.8251607418060303,0.13070157170295715,0.0843614786863327
1563,1234,0.11122371256351471,-0.36125996708869934,-1000.1708374023438,-0.8251607418060303,0.13070157170295715,0.0843614786863327
1571,1234,0.11122371256351471,-0.36125996708869934,-1000.1708374023438,-0.8251607418060303,0.13070157170295715,0.0843614786863327
1503,1234,0.11122371256351471,-0.36125996708869934,-1000.1708374023438,-0.8251607418060303,0.13070157170295715,0.0843614786863327
1518,1234,0.11122371256351471,-0.36125996708869934,-1000.1708374023438,-0.8251607418060303,0.13070157170295715,0.0843614786863327
1494,1234,0.11122371256351471,-0.36125996708869934,-1000.1708374023438,-0.8251607418060303,0.13070157170295715,0.0843614786863327
1502,1234,0.11122371256351471,-0.36125996708869934,-1000.1708374023438,-0.8251607418060303,0.13070157170295715,0.0843614786863327
1542,1235,-0.2297767698764801,-1.2965744733810425,-999.0579223632812,0.34266844391822815,-0.5549008846282959,0.31562697887420654
1559,1235,-0.2297767698764801,-1.2965744733810425,-999.0579223632812,0.34266844391822815,-0.5549008846282959,0.31562697887420654
1581,1235,-0.2297767698764801,-1.2965744733810425,-999.0579223632812,0.34266844391822815,-0.5549008846282959,0.31562697887420654
1566,1235,-0.2297767698764801,-1.2965744733810425,-999.0579223632812,0.34266844391822815,-0.5549008846282959,0.31562697887420654
1473,1235,-0.2297767698764801,-1.2965744733810425,-999.0579223632812,0.34266844391822815,-0.5549008846282959,0.31562697887420654
1490,1235,-0.2297767698764801,-1.2965744733810425,-999.0579223632812,0.34266844391822815,-0.5549008846282959,0.31562697887420654
1512,1235,-0.2297767698764801,-1.2965744733810425,-999.0579223632812,0.34266844391822815,-0.5549008846282959,0.31562697887420654
1497,1235,-0.2297767698764801,-1.2965744733810425,-999.0579223632812,0.34266844391822815,-0.5549008846282959,0.31562697887420654
1566,1236,-0.5356001853942871,2.127213478088379,-1000.0385131835938,-0.04013894498348236,0.1502186357975006,-0.6811760067939758
1581,1236,-0.5356001853942871,2.127213478088379,-1000.0385131835938,-0.04013894498348236,0.1502186357975006,-0.6811760067939758
1565,1236,-0.5356001853942871,2.127213478088379,-1000.0385131835938,-0.04013894498348236,0.1502186357975006,-0.6811760067939758
1571,1236,-0.5356001853942871,2.127213478088379,-1000.0385131835938,-0.04013894498348236,0.1502186357975006,-0.6811760067939758
1497,1236,-0.5356001853942871,2.127213478088379,-1000.0385131835938,-0.04013894498348236,0.1502186357975006,-0.6811760067939758
1512,1236,-0.5356001853942871,2.127213478088379,-1000.0385131835938,-0.04013894498348236,0.1502186357975006,-0.6811760067939758
1496,1236,-0.5356001853942871,2.127213478088379,-1000.0385131835938,-0.04013894498348236,0.1502186357975006,-0.6811760067939758
1502,1236,-0.5356001853942871,2.127213478088379,-1000.0385131835938,-0.04013894498348236,0.1502186357975006,-0.6811760067939758
1568,1237,-0.9137783050537109,-1.9962003231048584,-1000.3222045898438,-0.29294219613075256,0.0474158376455307,-0.7637839913368225
1556,1237,-0.9137783050537109,-1.9962003231048584,-1000.3222045898438,-0.29294219613075256,0.0474158376455307,-0.7637839913368225
1552,1237,-0.9137783050537109,-1.9962003231048584,-1000.3222045898438,-0.29294219613075256,0.0474158376455307,-0.7637839913368225
1576,1237,-0.9137783050537109,-1.9962003231048584,-1000.3222045898438,-0.29294219613075256,0.0474158376455307,-0.7637839913368225
1499,1237,-0.9137783050537109,-1.9962003231048584,-1000.3222045898438,-0.29294219613075256,0.0474158376455307,-0.7637839913368225
1487,1237,-0.9137783050537109,-1.9962003231048584,-1000.3222045898438,-0.29294219613075256,0.0474158376455307,-0.7637839913368225
1483,1237,-0.9137783050537109,-1.9962003231048584,-1000.3222045898438,-0.29294219613075256,0.0474158376455307,-0.7637839913368225
1507,1237,-0.9137783050537109,-1.9962003231048584,-1000.3222045898438,-0.29294219613075256,0.0474158376455307,-0.7637839913368225
1566,1238,1.4472686052322388,1.8328707218170166,-999.5413818359375,-0.4455666244029999,0.6021243929862976,0.16708889603614807
1571,1238,1.4472686052322388,1.8328707218170166,-999.5413818359375,-0.4455666244029999,0.6021243929862976,0.16708889603614807
1563,1238,1.4472686052322388,1.8328707218170166,-999.5413818359375,-0.4455666244029999,0.6021243929862976,0.16708889603614807
1580,1238,1.4472686052322388,1.8328707218170166,-999.5413818359375,-0.4455666244029999,0.6021243929862976,0.16708889603614807
1497,1238,1.4472686052322388,1.8328707218170166,-999.5413818359375,-0.4455666244029999,0.6021243929862976,0.16708889603614807
1502,1238,1.4472686052322388,1.8328707218170166,-999.5413818359375,-0.4455666244029999,0.6021243929862976,0.16708889603614807
1494,1238,1.4472686052322388,1.8328707218170166,-999.5413818359375,-0.4455666244029999,0.6021243929862976,0.16708889603614807
1511,1238,1.4472686052322388,1.8328707218170166,-999.5413818359375,-0.4455666244029999,0.6021243929862976,0.16708889603614807
1544,1239,-0.7432514429092407,-2.56978178024292,-999.9716186523438,0.2739323675632477,-0.15273061394691467,0.11971515417098999
1575,1239,-0.7432514429092407,-2.56978178024292,-999.9716186523438,0.2739323675632477,-0.15273061394691467,0.11971515417098999
1582,1239,-0.7432514429092407,-2.56978178024292,-999.9716186523438,0.2739323675632477,-0.15273061394691467,0.11971515417098999
1565,1239,-0.7432514429092407,-2.56978178024292,-999.9716186523438,0.2739323675632477,-0.15273061394691467,0.11971515417098999
1475,1239,-0.7432514429092407,-2.56978178024292,-999.9716186523438,0.2739323675632477,-0.15273061394691467,0.11971515417098999
1506,1239,-0.7432514429092407,-2.56978178024292,-999.9716186523438,0.2739323675632477,-0.15273061394691467,0.11971515417098999
1513,1239,-0.7432514429092407,-2.56978178024292,-999.9716186523438,0.2739323675632477,-0.15273061394691467,0.11971515417098999
1496,1239,-0.7432514429092407,-2.56978178024292,-999.9716186523438,0.2739323675632477,-0.15273061394691467,0.11971515417098999
1586,1240,1.1608439683914185,1.5111768245697021,-1000.1589965820312,0.2574712634086609,-0.6649297475814819,0.5243251919746399
1568,1240,1.1608439683914185,1.5111768245697021,-1000.1589965820312,0.2574712634086609,-0.6649297475814819,0.5243251919746399
1553,1240,1.1608439683914185,1.5111768245697021,-1000.1589965820312,0.2574712634086609,-0.6649297475814819,0.5243251919746399
1574,1240,1.1608439683914185,1.5111768245697021,-1000.1589965820312,0.2574712634086609,-0.6649297475814819,0.5243251919746399
1517,1240,1.1608439683914185,1.5111768245697021,-1000.1589965820312,0.2574712634086609,-0.6649297475814819,0.5243251919746399
1499,1240,1.1608439683914185,1.5111768245697021,-1000.1589965820312,0.2574712634086609,-0.6649297475814819,0.5243251919746399
1484,1240,1.1608439683914185,1.5111768245697021,-1000.1589965820312,0.2574712634086609,-0.6649297475814819,0.5243251919746399
1505,1240,1.1608439683914185,1.5111768245697021,-1000.1589965820312,0.2574712634086609,-0.6649297475814819,0.5243251919746399
1562,1241,2.8250839710235596,-0.40126416087150574,-999.727294921875,0.1708744317293167,-0.8074842095375061,-0.19917723536491394
1584,1241,2.8250839710235596,-0.40126416087150574,-999.727294921875,0.1708744317293167,-0.8074842095375061,-0.19917723536491394
1569,1241,2.8250839710235596,-0.40126416087150574,-999.727294921875,0.1708744317293167,-0.8074842095375061,-0.19917723536491394
1573,1241,2.8250839710235596,-0.40126416087150574,-999.727294921875,0.1708744317293167,-0.8074842095375061,-0.19917723536491394
1493,1241,2.8250839710235596,-0.40126416087150574,-999.727294921875,0.1708744317293167,-0.8074842095375061,-0.19917723536491394
1515,1241,2.8250839710235596,-0.40126416087150574,-999.727294921875,0.1708744317293167,-0.8074842095375061,-0.19917723536491394
1500,1241,2.8250839710235596,-0.40126416087150574,-999.727294921875,0.1708744317293167,-0.8074842095375061,-0.19917723536491394
1504,1241,2.8250839710235596,-0.40126416087150574,-999.727294921875,0.1708744317293167,-0.8074842095375061,-0.19917723536491394
1585,1242,-0.048692427575588226,0.34166979789733887,-999.1920776367188,1.3501009941101074,0.2839541435241699,-0.1528879702091217
1557,1242,-0.048692427575588226,0.34166979789733887,-999.1920776367188,1.3501009941101074,0.2839541435241699,-0.1528879702091217
1550,1242,-0.048692427575588226,0.34166979789733887,-999.1920776367188,1.3501009941101074,0.2839541435241699,-0.1528879702091217
1564,1242,-0.048692427575588226,0.34166979789733887,-999.1920776367188,1.3501009941101074,0.2839541435241699,-0.1528879702091217
1516,1242,-0.048692427575588226,0.34166979789733887,-999.1920776367188,1.3501009941101074,0.2839541435241699,-0.1528879702091217
1488,1242,-0.048692427575588226,0.34166979789733887,-999.1920776367188,1.3501009941101074,0.2839541435241699,-0.1528879702091217
1481,1242,-0.048692427575588226,0.34166979789733887,-999.1920776367188,1.3501009941101074,0.2839541435241699,-0.1528879702091217
1495,1242,-0.048692427575588226,0.34166979789733887,-999.1920776367188,1.3501009941101074,0.2839541435241699,-0.1528879702091217
1574,1243,-0.4784008264541626,0.6506839394569397,-999.8541259765625,-0.7651360034942627,0.30780789256095886,-0.24737605452537537
1573,1243,-0.4784008264541626,0.6506839394569397,-999.8541259765625,-0.7651360034942627,0.30780789256095886,-0.24737605452537537
1564,1243,-0.4784008264541626,0.6506839394569397,-999.8541259765625,-0.7651360034942627,0.30780789256095886,-0.24737605452537537
1586,1243,-0.4784008264541626,0.6506839394569397,-999.8541259765625,-0.7651360034942627,0.30780789256095886,-0.24737605452537537
1505,1243,-0.4784008264541626,0.6506839394569397,-999.8541259765625,-0.7651360034942627,0.30780789256095886,-0.24737605452537537
1504,1243,-0.4784008264541626,0.6506839394569397,-999.8541259765625,-0.7651360034942627,0.30780789256095886,-0.24737605452537537
1495,1243,-0.4784008264541626,0.6506839394569397,-999.8541259765625,-0.7651360034942627,0.30780789256095886,-0.24737605452537537
1517,1243,-0.4784008264541626,0.6506839394569397,-999.8541259765625,-0.7651360034942627,0.30780789256095886,-0.24737605452537537
1574,1244,-0.3905852138996124,-1.5140278339385986,-1000.026611328125,0.05239355191588402,-1.3670803308486938,-0.144541397690773
1579,1244,-0.3905852138996124,-1.5140278339385986,-1000.026611328125,0.05239355191588402,-1.3670803308486938,-0.144541397690773
1572,1244,-0.3905852138996124,-1.5140278339385986,-1000.026611328125,0.05239355191588402,-1.3670803308486938,-0.144541397690773
1571,1244,-0.3905852138996124,-1.5140278339385986,-1000.026611328125,0.05239355191588402,-1.3670803308486938,-0.144541397690773
1505,1244,-0.3905852138996124,-1.5140278339385986,-1000.026611328125,0.05239355191588402,-1.3670803308486938,-0.144541397690773
1510,1244,-0.3905852138996124,-1.5140278339385986,-1000.026611328125,0.05239355191588402,-1.3670803308486938,-0.144541397690773
1503,1244,-0.3905852138996124,-1.5140278339385986,-1000.026611328125,0.05239355191588402,-1.3670803308486938,-0.144541397690773
1502,1244,-0.3905852138996124,-1.5140278339385986,-1000.026611328125,0.05239355191588402,-1.3670803308486938,-0.144541397690773
1564,1245,1.8300800323486328,1.237594723701477,-1000.1016235351562,-0.4935699701309204,-0.5096620917320251,0.8954461216926575
1573,1245,1.8300800323486328,1.237594723701477,-1000.1016235351562,-0.4935699701309204,-0.5096620917320251,0.8954461216926575
1569,1245,1.8300800323486328,1.237594723701477,-1000.1016235351562,-0.4935699701309204,-0.5096620917320251,0.8954461216926575
1585,1245,1.8300800323486328,1.237594723701477,-1000.1016235351562,-0.4935699701309204,-0.5096620917320251,0.8954461216926575
1495,1245,1.8300800323486328,1.237594723701477,-1000.1016235351562,-0.4935699701309204,-0.5096620917320251,0.8954461216926575
1504,1245,1.8300800323486328,1.237594723701477,-1000.1016235351562,-0.4935699701309204,-0.5096620917320251,0.8954461216926575
1500,1245,1.8300800323486328,1.237594723701477,-1000.1016235351562,-0.4935699701309204,-0.5096620917320251,0.8954461216926575
1516,1245,1.8300800323486328,1.237594723701477,-1000.1016235351562,-0.4935699701309204,-0.5096620917320251,0.8954461216926575
1575,1246,0.3428003787994385,1.1222829818725586,-1000.0394897460938,0.4126674234867096,-0.08612024784088135,0.07263948768377304
1529,1246,0.3428003787994385,1.1222829818725586,-1000.0394897460938,0.4126674234867096,-0.08612024784088135,0.07263948768377304
1528,1246,0.3428003787994385,1.1222829818725586,-1000.0394897460938,0.4126674234867096,-0.08612024784088135,0.07263948768377304
1545,1246,0.3428003787994385,1.1222829818725586,-1000.0394897460938,0.4126674234867096,-0.08612024784088135,0.07263948768377304
1506,1246,0.3428003787994385,1.1222829818725586,-1000.0394897460938,0.4126674234867096,-0.08612024784088135,0.07263948768377304
1460,1246,0.3428003787994385,1.1222829818725586,-1000.0394897460938,0.4126674234867096,-0.08612024784088135,0.07263948768377304
1459,1246,0.3428003787994385,1.1222829818725586,-1000.0394897460938,0.4126674234867096,-0.08612024784088135,0.07263948768377304
1476,1246,0.3428003787994385,1.1222829818725586,-1000.0394897460938,0.4126674234867096,-0.08612024784088135,0.07263948768377304
1577,1247,0.7489380240440369,1.148846983909607,-999.9715576171875,0.564206063747406,0.10179091989994049,-0.10695834457874298
1520,1247,0.7489380240440369,1.148846983909607,-999.9715576171875,0.564206063747406,0.10179091989994049,-0.10695834457874298
1535,1247,0.7489380240440369,1.148846983909607,-999.9715576171875,0.564206063747406,0.10179091989994049,-0.10695834457874298
1555,1247,0.7489380240440369,1.148846983909607,-999.9715576171875,0.564206063747406,0.10179091989994049,-0.10695834457874298
1508,1247,0.7489380240440369,1.148846983909607,-999.9715576171875,0.564206063747406,0.10179091989994049,-0.10695834457874298
1451,1247,0.7489380240440369,1.148846983909607,-999.9715576171875,0.564206063747406,0.10179091989994049,-0.10695834457874298
1466,1247,0.7489380240440369,1.148846983909607,-999.9715576171875,0.564206063747406,0.10179091989994049,-0.10695834457874298
1486,1247,0.7489380240440369,1.148846983909607,-999.9715576171875,0.564206063747406,0.10179091989994049,-0.10695834457874298
1554,1248,0.30815237760543823,0.4025932848453522,-999.0458984375,-0.6119523644447327,-0.7420313358306885,0.34400510787963867
1578,1248,0.30815237760543823,0.4025932848453522,-999.0458984375,-0.6119523644447327,-0.7420313358306885,0.34400510787963867
1567,1248,0.30815237760543823,0.4025932848453522,-999.0458984375,-0.6119523644447327,-0.7420313358306885,0.34400510787963867
1555,1248,0.30815237760543823,0.4025932848453522,-999.0458984375,-0.6119523644447327,-0.7420313358306885,0.34400510787963867
1485,1248,0.30815237760543823,0.4025932848453522,-999.0458984375,-0.6119523644447327,-0.7420313358306885,0.34400510787963867
1509,1248,0.30815237760543823,0.4025932848453522,-999.0458984375,-0.6119523644447327,-0.7420313358306885,0.34400510787963867
1498,1248,0.30815237760543823,0.4025932848453522,-999.0458984375,-0.6119523644447327,-0.7420313358306885,0.34400510787963867
1486,1248,0.30815237760543823,0.4025932848453522,-999.0458984375,-0.6119523644447327,-0.7420313358306885,0.34400510787963867
1578,1249,2.3393502235412598,1.3539377450942993,-999.5308227539062,0.508295476436615,1.5292863845825195,-0.7922554016113281
1561,1249,2.3393502235412598,1.3539377450942993,-999.5308227539062,0.508295476436615,1.5292863845825195,-0.7922554016113281
1587,1249,2.3393502235412598,1.3539377450942993,-999.5308227539062,0.508295476436615,1.5292863845825195,-0.7922554016113281
1572,1249,2.3393502235412598,1.3539377450942993,-999.5308227539062,0.508295476436615,1.5292863845825195,-0.7922554016113281
1509,1249,2.3393502235412598,1.3539377450942993,-999.5308227539062,0.508295476436615,1.5292863845825195,-0.7922554016113281
1492,1249,2.3393502235412598,1.3539377450942993,-999.5308227539062,0.508295476436615,1.5292863845825195,-0.7922554016113281
1518,1249,2.3393502235412598,1.3539377450942993,-999.5308227539062,0.508295476436615,1.5292863845825195,-0.7922554016113281
1503,1249,2.3393502235412598,1.3539377450942993,-999.5308227539062,0.508295476436615,1.5292863845825195,-0.7922554016113281
1580,1250,-0.8672232627868652,-2.8018991947174072,-1001.4606323242188,0.047134947031736374,-0.12988698482513428,-0.1912464052438736
1541,1250,-0.8672232627868652,-2.8018991947174072,-1001.4606323242188,0.047134947031736374,-0.12988698482513428,-0.1912464052438736
1542,1250,-0.8672232627868652,-2.8018991947174072,-1001.4606323242188,0.047134947031736374,-0.12988698482513428,-0.1912464052438736
1566,1250,-0.8672232627868652,-2.8018991947174072,-1001.4606323242188,0.047134947031736374,-0.12988698482513428,-0.1912464052438736
1511,1250,-0.8672232627868652,-2.8018991947174072,-1001.4606323242188,0.047134947031736374,-0.12988698482513428,-0.1912464052438736
1472,1250,-0.8672232627868652,-2.8018991947174072,-1001.4606323242188,0.047134947031736374,-0.12988698482513428,-0.1912464052438736
1473,1250,-0.8672232627868652,-2.8018991947174072,-1001.4606323242188,0.047134947031736374,-0.12988698482513428,-0.1912464052438736
1497,1250,-0.8672232627868652,-2.8018991947174072,-1001.4606323242188,0.047134947031736374,-0.12988698482513428,-0.1912464052438736
1581,1251,-0.31758958101272583,-2.02528977394104,-1000.4771118164062,-0.23226241767406464,0.49513474106788635,0.21483488380908966
1559,1251,-0.31758958101272583,-2.02528977394104,-1000.4771118164062,-0.23226241767406464,0.49513474106788635,0.21483488380908966
1544,1251,-0.31758958101272583,-2.02528977394104,-1000.4771118164062,-0.23226241767406464,0.49513474106788635,0.21483488380908966
1565,1251,-0.31758958101272583,-2.02528977394104,-1000.4771118164062,-0.23226241767406464,0.49513474106788635,0.21483488380908966
1512,1251,-0.31758958101272583,-2.02528977394104,-1000.4771118164062,-0.23226241767406464,0.49513474106788635,0.21483488380908966
1490,1251,-0.31758958101272583,-2.02528977394104,-1000.4771118164062,-0.23226241767406464,0.49513474106788635,0.21483488380908966
1475,1251,-0.31758958101272583,-2.02528977394104,-1000.4771118164062,-0.23226241767406464,0.49513474106788635,0.21483488380908966
1496,1251,-0.31758958101272583,-2.02528977394104,-1000.4771118164062,-0.23226241767406464,0.49513474106788635,0.21483488380908966
1583,1252,-1.1577008962631226,0.32446643710136414,-999.8118286132812,0.024471595883369446,0.8708903193473816,-0.058906786143779755
1558,1252,-1.1577008962631226,0.32446643710136414,-999.8118286132812,0.024471595883369446,0.8708903193473816,-0.058906786143779755
1547,1252,-1.1577008962631226,0.32446643710136414,-999.8118286132812,0.024471595883369446,0.8708903193473816,-0.058906786143779755
1562,1252,-1.1577008962631226,0.32446643710136414,-999.8118286132812,0.024471595883369446,0.8708903193473816,-0.058906786143779755
1514,1252,-1.1577008962631226,0.32446643710136414,-999.8118286132812,0.024471595883369446,0.8708903193473816,-0.058906786143779755
1489,1252,-1.1577008962631226,0.32446643710136414,-999.8118286132812,0.024471595883369446,0.8708903193473816,-0.058906786143779755
1478,1252,-1.1577008962631226,0.32446643710136414,-999.8118286132812,0.024471595883369446,0.8708903193473816,-0.058906786143779755
1493,1252,-1.1577008962631226,0.32446643710136414,-999.8118286132812,0.024471595883369446,0.8708903193473816,-0.058906786143779755
1584,1253,-1.40549898147583,0.2732847034931183,-999.2855834960938,0.48339611291885376,0.7076312303543091,-0.35527127981185913
1548,1253,-1.40549898147583,0.2732847034931183,-999.2855834960938,0.48339611291885376,0.7076312303543091,-0.35527127981185913
1549,1253,-1.40549898147583,0.2732847034931183,-999.2855834960938,0.48339611291885376,0.7076312303543091,-0.35527127981185913
1569,1253,-1.40549898147583,0.2732847034931183,-999.2855834960938,0.48339611291885376,0.7076312303543091,-0.35527127981185913
1515,1253,-1.40549898147583,0.2732847034931183,-999.2855834960938,0.48339611291885376,0.7076312303543091,-0.35527127981185913
1479,1253,-1.40549898147583,0.2732847034931183,-999.2855834960938,0.48339611291885376,0.7076312303543091,-0.35527127981185913
1480,1253,-1.40549898147583,0.2732847034931183,-999.2855834960938,0.48339611291885376,0.7076312303543091,-0.35527127981185913
1500,1253,-1.40549898147583,0.2732847034931183,-999.2855834960938,0.48339611291885376,0.7076312303543091,-0.35527127981185913
1586,1254,0.38176098465919495,-0.4406755864620209,-999.5619506835938,0.5159639716148376,0.3105277419090271,-0.0883733406662941
1551,1254,0.38176098465919495,-0.4406755864620209,-999.5619506835938,0.5159639716148376,0.3105277419090271,-0.0883733406662941
1556,1254,0.38176098465919495,-0.4406755864620209,-999.5619506835938,0.5159639716148376,0.3105277419090271,-0.0883733406662941
1568,1254,0.38176098465919495,-0.4406755864620209,-999.5619506835938,0.5159639716148376,0.3105277419090271,-0.0883733406662941
1517,1254,0.38176098465919495,-0.4406755864620209,-999.5619506835938,0.5159639716148376,0.3105277419090271,-0.0883733406662941
1482,1254,0.38176098465919495,-0.4406755864620209,-999.5619506835938,0.5159639716148376,0.3105277419090271,-0.0883733406662941
1487,1254,0.38176098465919495,-0.4406755864620209,-999.5619506835938,0.5159639716148376,0.3105277419090271,-0.0883733406662941
1499,1254,0.38176098465919495,-0.4406755864620209,-999.5619506835938,0.5159639716148376,0.3105277419090271,-0.0883733406662941
1611,1255,-0.20243439078330994,-1.087234616279602,-999.9610595703125,0.0817415863275528,-0.19055022299289703,-0.018992150202393532
1600,1255,-0.20243439078330994,-1.087234616279602,-999.9610595703125,0.0817415863275528,-0.19055022299289703,-0.018992150202393532
1599,1255,-0.20243439078330994,-1.087234616279602,-999.9610595703125,0.0817415863275528,-0.19055022299289703,-0.018992150202393532
1628,1255,-0.20243439078330994,-1.087234616279602,-999.9610595703125,0.0817415863275528,-0.19055022299289703,-0.018992150202393532
1542,1255,-0.20243439078330994,-1.087234616279602,-999.9610595703125,0.0817415863275528,-0.19055022299289703,-0.018992150202393532
1531,1255,-0.20243439078330994,-1.087234616279602,-999.9610595703125,0.0817415863275528,-0.19055022299289703,-0.018992150202393532
1530,1255,-0.20243439078330994,-1.087234616279602,-999.9610595703125,0.0817415863275528,-0.19055022299289703,-0.018992150202393532
1559,1255,-0.20243439078330994,-1.087234616279602,-999.9610595703125,0.0817415863275528,-0.19055022299289703,-0.018992150202393532
1628,1256,-0.3603125512599945,-1.372248888015747,-999.9423217773438,0.047323476523160934,0.15753872692584991,0.11672735214233398
1599,1256,-0.3603125512599945,-1.372248888015747,-999.9423217773438,0.047323476523160934,0.15753872692584991,0.11672735214233398
1608,1256,-0.3603125512599945,-1.372248888015747,-999.9423217773438,0.047323476523160934,0.15753872692584991,0.11672735214233398
1613,1256,-0.3603125512599945,-1.372248888015747,-999.9423217773438,0.047323476523160934,0.15753872692584991,0.11672735214233398
1559,1256,-0.3603125512599945,-1.372248888015747,-999.9423217773438,0.047323476523160934,0.15753872692584991,0.11672735214233398
1530,1256,-0.3603125512599945,-1.372248888015747,-999.9423217773438,0.047323476523160934,0.15753872692584991,0.11672735214233398
1539,1256,-0.3603125512599945,-1.372248888015747,-999.9423217773438,0.047323476523160934,0.15753872692584991,0.11672735214233398
1544,1256,-0.3603125512599945,-1.372248888015747,-999.9423217773438,0.047323476523160934,0.15753872692584991,0.11672735214233398
1609,1257,-0.7361506223678589,-0.7485589385032654,-1000.0853271484375,0.36868801712989807,-0.15489841997623444,0.18577799201011658
1629,1257,-0.7361506223678589,-0.7485589385032654,-1000.0853271484375,0.36868801712989807,-0.15489841997623444,0.18577799201011658
1612,1257,-0.7361506223678589,-0.7485589385032654,-1000.0853271484375,0.36868801712989807,-0.15489841997623444,0.18577799201011658
1602,1257,-0.7361506223678589,-0.7485589385032654,-1000.0853271484375,0.36868801712989807,-0.15489841997623444,0.18577799201011658
1540,1257,-0.7361506223678589,-0.7485589385032654,-1000.0853271484375,0.36868801712989807,-0.15489841997623444,0.18577799201011658
1560,1257,-0.7361506223678589,-0.7485589385032654,-1000.0853271484375,0.36868801712989807,-0.15489841997623444,0.18577799201011658
1543,1257,-0.7361506223678589,-0.7485589385032654,-1000.0853271484375,0.36868801712989807,-0.15489841997623444,0.18577799201011658
1533,1257,-0.7361506223678589,-0.7485589385032654,-1000.0853271484375,0.36868801712989807,-0.15489841997623444,0.18577799201011658
1600,1258,-0.3595268726348877,-1.5798676013946533,-1000.1555786132812,0.13586707413196564,0.013000048696994781,0.07586974650621414
1611,1258,-0.3595268726348877,-1.5798676013946533,-1000.1555786132812,0.13586707413196564,0.013000048696994781,0.07586974650621414
1610,1258,-0.3595268726348877,-1.5798676013946533,-1000.1555786132812,0.13586707413196564,0.013000048696994781,0.07586974650621414
1601,1258,-0.3595268726348877,-1.5798676013946533,-1000.1555786132812,0.13586707413196564,0.013000048696994781,0.07586974650621414
1531,1258,-0.3595268726348877,-1.5798676013946533,-1000.1555786132812,0.13586707413196564,0.013000048696994781,0.07586974650621414
1542,1258,-0.3595268726348877,-1.5798676013946533,-1000.1555786132812,0.13586707413196564,0.013000048696994781,0.07586974650621414
1541,1258,-0.3595268726348877,-1.5798676013946533,-1000.1555786132812,0.13586707413196564,0.013000048696994781,0.07586974650621414
1532,1258,-0.3595268726348877,-1.5798676013946533,-1000.1555786132812,0.13586707413196564,0.013000048696994781,0.07586974650621414
1639,1259,-0.9864685535430908,-0.9313575029373169,-1000.08056640625,-0.6280458569526672,0.5542312264442444,0.9368630647659302
1652,1259,-0.9864685535430908,-0.9313575029373169,-1000.08056640625,-0.6280458569526672,0.5542312264442444,0.9368630647659302
1631,1259,-0.9864685535430908,-0.9313575029373169,-1000.08056640625,-0.6280458569526672,0.5542312264442444,0.9368630647659302
1642,1259,-0.9864685535430908,-0.9313575029373169,-1000.08056640625,-0.6280458569526672,0.5542312264442444,0.9368630647659302
1570,1259,-0.9864685535430908,-0.9313575029373169,-1000.08056640625,-0.6280458569526672,0.5542312264442444,0.9368630647659302
1583,1259,-0.9864685535430908,-0.9313575029373169,-1000.08056640625,-0.6280458569526672,0.5542312264442444,0.9368630647659302
1562,1259,-0.9864685535430908,-0.9313575029373169,-1000.08056640625,-0.6280458569526672,0.5542312264442444,0.9368630647659302
1573,1259,-0.9864685535430908,-0.9313575029373169,-1000.08056640625,-0.6280458569526672,0.5542312264442444,0.9368630647659302
1655,1260,1.7411996126174927,2.2804627418518066,-999.3131103515625,-0.19497187435626984,0.15624567866325378,0.23448845744132996
1633,1260,1.7411996126174927,2.2804627418518066,-999.3131103515625,-0.19497187435626984,0.15624567866325378,0.23448845744132996
1619,1260,1.7411996126174927,2.2804627418518066,-999.3131103515625,-0.19497187435626984,0.15624567866325378,0.23448845744132996
1620,1260,1.7411996126174927,2.2804627418518066,-999.3131103515625,-0.19497187435626984,0.15624567866325378,0.23448845744132996
1586,1260,1.7411996126174927,2.2804627418518066,-999.3131103515625,-0.19497187435626984,0.15624567866325378,0.23448845744132996
1564,1260,1.7411996126174927,2.2804627418518066,-999.3131103515625,-0.19497187435626984,0.15624567866325378,0.23448845744132996
1550,1260,1.7411996126174927,2.2804627418518066,-999.3131103515625,-0.19497187435626984,0.15624567866325378,0.23448845744132996
1551,1260,1.7411996126174927,2.2804627418518066,-999.3131103515625,-0.19497187435626984,0.15624567866325378,0.23448845744132996
1643,1261,1.1157351732254028,1.4519823789596558,-999.6084594726562,-0.44101426005363464,-0.7683246731758118,-0.2932581603527069
1640,1261,1.1157351732254028,1.4519823789596558,-999.6084594726562,-0.44101426005363464,-0.7683246731758118,-0.2932581603527069
1639,1261,1.1157351732254028,1.4519823789596558,-999.6084594726562,-0.44101426005363464,-0.7683246731758118,-0.2932581603527069
1642,1261,1.1157351732254028,1.4519823789596558,-999.6084594726562,-0.44101426005363464,-0.7683246731758118,-0.2932581603527069
1574,1261,1.1157351732254028,1.4519823789596558,-999.6084594726562,-0.44101426005363464,-0.7683246731758118,-0.2932581603527069
1571,1261,1.1157351732254028,1.4519823789596558,-999.6084594726562,-0.44101426005363464,-0.7683246731758118,-0.2932581603527069
1570,1261,1.1157351732254028,1.4519823789596558,-999.6084594726562,-0.44101426005363464,-0.7683246731758118,-0.2932581603527069
1573,1261,1.1157351732254028,1.4519823789596558,-999.6084594726562,-0.44101426005363464,-0.7683246731758118,-0.2932581603527069
1634,1262,-1.4452943801879883,-2.508558511734009,-1000.274658203125,-0.3465195596218109,0.6459187269210815,-0.09598971158266068
1651,1262,-1.4452943801879883,-2.508558511734009,-1000.274658203125,-0.3465195596218109,0.6459187269210815,-0.09598971158266068
1639,1262,-1.4452943801879883,-2.508558511734009,-1000.274658203125,-0.3465195596218109,0.6459187269210815,-0.09598971158266068
1640,1262,-1.4452943801879883,-2.508558511734009,-1000.274658203125,-0.3465195596218109,0.6459187269210815,-0.09598971158266068
1565,1262,-1.4452943801879883,-2.508558511734009,-1000.274658203125,-0.3465195596218109,0.6459187269210815,-0.09598971158266068
1582,1262,-1.4452943801879883,-2.508558511734009,-1000.274658203125,-0.3465195596218109,0.6459187269210815,-0.09598971158266068
1570,1262,-1.4452943801879883,-2.508558511734009,-1000.274658203125,-0.3465195596218109,0.6459187269210815,-0.09598971158266068
1571,1262,-1.4452943801879883,-2.508558511734009,-1000.274658203125,-0.3465195596218109,0.6459187269210815,-0.09598971158266068
1614,1263,1.1018189191818237,0.8621653914451599,-1000.0704345703125,0.6781572699546814,0.5900607109069824,-0.6364567875862122
1627,1263,1.1018189191818237,0.8621653914451599,-1000.0704345703125,0.6781572699546814,0.5900607109069824,-0.6364567875862122
1652,1263,1.1018189191818237,0.8621653914451599,-1000.0704345703125,0.6781572699546814,0.5900607109069824,-0.6364567875862122
1639,1263,1.1018189191818237,0.8621653914451599,-1000.0704345703125,0.6781572699546814,0.5900607109069824,-0.6364567875862122
1545,1263,1.1018189191818237,0.8621653914451599,-1000.0704345703125,0.6781572699546814,0.5900607109069824,-0.6364567875862122
1558,1263,1.1018189191818237,0.8621653914451599,-1000.0704345703125,0.6781572699546814,0.5900607109069824,-0.6364567875862122
1583,1263,1.1018189191818237,0.8621653914451599,-1000.0704345703125,0.6781572699546814,0.5900607109069824,-0.6364567875862122
1570,1263,1.1018189191818237,0.8621653914451599,-1000.0704345703125,0.6781572699546814,0.5900607109069824,-0.6364567875862122
1654,1264,3.576796531677246,1.3351726531982422,-998.957763671875,0.5042068958282471,-0.13614612817764282,0.5201693177223206
1638,1264,3.576796531677246,1.3351726531982422,-998.957763671875,0.5042068958282471,-0.13614612817764282,0.5201693177223206
1618,1264,3.576796531677246,1.3351726531982422,-998.957763671875,0.5042068958282471,-0.13614612817764282,0.5201693177223206
1626,1264,3.576796531677246,1.3351726531982422,-998.957763671875,0.5042068958282471,-0.13614612817764282,0.5201693177223206
1585,1264,3.576796531677246,1.3351726531982422,-998.957763671875,0.5042068958282471,-0.13614612817764282,0.5201693177223206
1569,1264,3.576796531677246,1.3351726531982422,-998.957763671875,0.5042068958282471,-0.13614612817764282,0.5201693177223206
1549,1264,3.576796531677246,1.3351726531982422,-998.957763671875,0.5042068958282471,-0.13614612817764282,0.5201693177223206
1557,1264,3.576796531677246,1.3351726531982422,-998.957763671875,0.5042068958282471,-0.13614612817764282,0.5201693177223206
1648,1265,-1.1194833517074585,-1.3809492588043213,-1000.7609252929688,-0.5000712275505066,-1.4030324220657349,1.1583269834518433
1643,1265,-1.1194833517074585,-1.3809492588043213,-1000.7609252929688,-0.5000712275505066,-1.4030324220657349,1.1583269834518433
1622,1265,-1.1194833517074585,-1.3809492588043213,-1000.7609252929688,-0.5000712275505066,-1.4030324220657349,1.1583269834518433
1636,1265,-1.1194833517074585,-1.3809492588043213,-1000.7609252929688,-0.5000712275505066,-1.4030324220657349,1.1583269834518433
1579,1265,-1.1194833517074585,-1.3809492588043213,-1000.7609252929688,-0.5000712275505066,-1.4030324220657349,1.1583269834518433
1574,1265,-1.1194833517074585,-1.3809492588043213,-1000.7609252929688,-0.5000712275505066,-1.4030324220657349,1.1583269834518433
1553,1265,-1.1194833517074585,-1.3809492588043213,-1000.7609252929688,-0.5000712275505066,-1.4030324220657349,1.1583269834518433
1567,1265,-1.1194833517074585,-1.3809492588043213,-1000.7609252929688,-0.5000712275505066,-1.4030324220657349,1.1583269834518433
1622,1266,0.8868252038955688,0.3401903808116913,-1000.2727661132812,0.8417424559593201,-0.11566351354122162,-0.6894616484642029
1637,1266,0.8868252038955688,0.3401903808116913,-1000.2727661132812,0.8417424559593201,-0.11566351354122162,-0.6894616484642029
1645,1266,0.8868252038955688,0.3401903808116913,-1000.2727661132812,0.8417424559593201,-0.11566351354122162,-0.6894616484642029
1646,1266,0.8868252038955688,0.3401903808116913,-1000.2727661132812,0.8417424559593201,-0.11566351354122162,-0.6894616484642029
1553,1266,0.8868252038955688,0.3401903808116913,-1000.2727661132812,0.8417424559593201,-0.11566351354122162,-0.6894616484642029
1568,1266,0.8868252038955688,0.3401903808116913,-1000.2727661132812,0.8417424559593201,-0.11566351354122162,-0.6894616484642029
1576,1266,0.8868252038955688,0.3401903808116913,-1000.2727661132812,0.8417424559593201,-0.11566351354122162,-0.6894616484642029
1577,1266,0.8868252038955688,0.3401903808116913,-1000.2727661132812,0.8417424559593201,-0.11566351354122162,-0.6894616484642029
1629,1267,0.48905420303344727,0.4594905972480774,-1001.5643920898438,-1.1256258487701416,0.26269346475601196,-0.19180235266685486
1610,1267,0.48905420303344727,0.4594905972480774,-1001.5643920898438,-1.1256258487701416,0.26269346475601196,-0.19180235266685486
1649,1267,0.48905420303344727,0.4594905972480774,-1001.5643920898438,-1.1256258487701416,0.26269346475601196,-0.19180235266685486
1632,1267,0.48905420303344727,0.4594905972480774,-1001.5643920898438,-1.1256258487701416,0.26269346475601196,-0.19180235266685486
1560,1267,0.48905420303344727,0.4594905972480774,-1001.5643920898438,-1.1256258487701416,0.26269346475601196,-0.19180235266685486
1541,1267,0.48905420303344727,0.4594905972480774,-1001.5643920898438,-1.1256258487701416,0.26269346475601196,-0.19180235266685486
1580,1267,0.48905420303344727,0.4594905972480774,-1001.5643920898438,-1.1256258487701416,0.26269346475601196,-0.19180235266685486
1563,1267,0.48905420303344727,0.4594905972480774,-1001.5643920898438,-1.1256258487701416,0.26269346475601196,-0.19180235266685486
1656,1268,1.6267526149749756,1.7836248874664307,-998.5017700195312,-0.5064530372619629,0.4298970401287079,0.2908798158168793
1612,1268,1.6267526149749756,1.7836248874664307,-998.5017700195312,-0.5064530372619629,0.4298970401287079,0.2908798158168793
1629,1268,1.6267526149749756,1.7836248874664307,-998.5017700195312,-0.5064530372619629,0.4298970401287079,0.2908798158168793
1632,1268,1.6267526149749756,1.7836248874664307,-998.5017700195312,-0.5064530372619629,0.4298970401287079,0.2908798158168793
1587,1268,1.6267526149749756,1.7836248874664307,-998.5017700195312,-0.5064530372619629,0.4298970401287079,0.2908798158168793
1543,1268,1.6267526149749756,1.7836248874664307,-998.5017700195312,-0.5064530372619629,0.4298970401287079,0.2908798158168793
1560,1268,1.6267526149749756,1.7836248874664307,-998.5017700195312,-0.5064530372619629,0.4298970401287079,0.2908798158168793
1563,1268,1.6267526149749756,1.7836248874664307,-998.5017700195312,-0.5064530372619629,0.4298970401287079,0.2908798158168793
1616,1269,2.0877890586853027,0.7680269479751587,-999.3294067382812,0.4001172184944153,0.05296741798520088,-0.8183205723762512
1617,1269,2.0877890586853027,0.7680269479751587,-999.3294067382812,0.4001172184944153,0.05296741798520088,-0.8183205723762512
1653,1269,2.0877890586853027,0.7680269479751587,-999.3294067382812,0.4001172184944153,0.05296741798520088,-0.8183205723762512
1631,1269,2.0877890586853027,0.7680269479751587,-999.3294067382812,0.4001172184944153,0.05296741798520088,-0.8183205723762512
1547,1269,2.0877890586853027,0.7680269479751587,-999.3294067382812,0.4001172184944153,0.05296741798520088,-0.8183205723762512
1548,1269,2.0877890586853027,0.7680269479751587,-999.3294067382812,0.4001172184944153,0.05296741798520088,-0.8183205723762512
1584,1269,2.0877890586853027,0.7680269479751587,-999.3294067382812,0.4001172184944153,0.05296741798520088,-0.8183205723762512
1562,1269,2.0877890586853027,0.7680269479751587,-999.3294067382812,0.4001172184944153,0.05296741798520088,-0.8183205723762512
1601,1270,-0.5426474213600159,-1.0986483097076416,-999.9279174804688,0.6847479343414307,-0.06095863878726959,-0.11700517684221268
1610,1270,-0.5426474213600159,-1.0986483097076416,-999.9279174804688,0.6847479343414307,-0.06095863878726959,-0.11700517684221268
1629,1270,-0.5426474213600159,-1.0986483097076416,-999.9279174804688,0.6847479343414307,-0.06095863878726959,-0.11700517684221268
1609,1270,-0.5426474213600159,-1.0986483097076416,-999.9279174804688,0.6847479343414307,-0.06095863878726959,-0.11700517684221268
1532,1270,-0.5426474213600159,-1.0986483097076416,-999.9279174804688,0.6847479343414307,-0.06095863878726959,-0.11700517684221268
1541,1270,-0.5426474213600159,-1.0986483097076416,-999.9279174804688,0.6847479343414307,-0.06095863878726959,-0.11700517684221268
1560,1270,-0.5426474213600159,-1.0986483097076416,-999.9279174804688,0.6847479343414307,-0.06095863878726959,-0.11700517684221268
1540,1270,-0.5426474213600159,-1.0986483097076416,-999.9279174804688,0.6847479343414307,-0.06095863878726959,-0.11700517684221268
1598,1271,-0.5529414415359497,-2.2653682231903076,-1000.1380004882812,0.0913442000746727,-0.05667407438158989,0.0032263710163533688
1644,1271,-0.5529414415359497,-2.2653682231903076,-1000.1380004882812,0.0913442000746727,-0.05667407438158989,0.0032263710163533688
1613,1271,-0.5529414415359497,-2.2653682231903076,-1000.1380004882812,0.0913442000746727,-0.05667407438158989,0.0032263710163533688
1608,1271,-0.5529414415359497,-2.2653682231903076,-1000.1380004882812,0.0913442000746727,-0.05667407438158989,0.0032263710163533688
1529,1271,-0.5529414415359497,-2.2653682231903076,-1000.1380004882812,0.0913442000746727,-0.05667407438158989,0.0032263710163533688
1575,1271,-0.5529414415359497,-2.2653682231903076,-1000.1380004882812,0.0913442000746727,-0.05667407438158989,0.0032263710163533688
1544,1271,-0.5529414415359497,-2.2653682231903076,-1000.1380004882812,0.0913442000746727,-0.05667407438158989,0.0032263710163533688
1539,1271,-0.5529414415359497,-2.2653682231903076,-1000.1380004882812,0.0913442000746727,-0.05667407438158989,0.0032263710163533688
1614,1272,-1.0000245571136475,-0.35798999667167664,-999.9840698242188,-0.3609645366668701,-0.09287853538990021,0.2122882902622223
1597,1272,-1.0000245571136475,-0.35798999667167664,-999.9840698242188,-0.3609645366668701,-0.09287853538990021,0.2122882902622223
1607,1272,-1.0000245571136475,-0.35798999667167664,-999.9840698242188,-0.3609645366668701,-0.09287853538990021,0.2122882902622223
1627,1272,-1.0000245571136475,-0.35798999667167664,-999.9840698242188,-0.3609645366668701,-0.09287853538990021,0.2122882902622223
1545,1272,-1.0000245571136475,-0.35798999667167664,-999.9840698242188,-0.3609645366668701,-0.09287853538990021,0.2122882902622223
1528,1272,-1.0000245571136475,-0.35798999667167664,-999.9840698242188,-0.3609645366668701,-0.09287853538990021,0.2122882902622223
1538,1272,-1.0000245571136475,-0.35798999667167664,-999.9840698242188,-0.3609645366668701,-0.09287853538990021,0.2122882902622223
1558,1272,-1.0000245571136475,-0.35798999667167664,-999.9840698242188,-0.3609645366668701,-0.09287853538990021,0.2122882902622223
1615,1273,-1.5493801832199097,-0.26015523076057434,-999.87109375,0.10491380840539932,-0.1540452241897583,-0.07543003559112549
1603,1273,-1.5493801832199097,-0.26015523076057434,-999.87109375,0.10491380840539932,-0.1540452241897583,-0.07543003559112549
1602,1273,-1.5493801832199097,-0.26015523076057434,-999.87109375,0.10491380840539932,-0.1540452241897583,-0.07543003559112549
1612,1273,-1.5493801832199097,-0.26015523076057434,-999.87109375,0.10491380840539932,-0.1540452241897583,-0.07543003559112549
1546,1273,-1.5493801832199097,-0.26015523076057434,-999.87109375,0.10491380840539932,-0.1540452241897583,-0.07543003559112549
1534,1273,-1.5493801832199097,-0.26015523076057434,-999.87109375,0.10491380840539932,-0.1540452241897583,-0.07543003559112549
1533,1273,-1.5493801832199097,-0.26015523076057434,-999.87109375,0.10491380840539932,-0.1540452241897583,-0.07543003559112549
1543,1273,-1.5493801832199097,-0.26015523076057434,-999.87109375,0.10491380840539932,-0.1540452241897583,-0.07543003559112549
1627,1274,-1.051090955734253,0.009194381535053253,-999.974365234375,0.02613394893705845,0.1831783950328827,-0.08595946431159973
1607,1274,-1.051090955734253,0.009194381535053253,-999.974365234375,0.02613394893705845,0.1831783950328827,-0.08595946431159973
1596,1274,-1.051090955734253,0.009194381535053253,-999.974365234375,0.02613394893705845,0.1831783950328827,-0.08595946431159973
1616,1274,-1.051090955734253,0.009194381535053253,-999.974365234375,0.02613394893705845,0.1831783950328827,-0.08595946431159973
1558,1274,-1.051090955734253,0.009194381535053253,-999.974365234375,0.02613394893705845,0.1831783950328827,-0.08595946431159973
1538,1274,-1.051090955734253,0.009194381535053253,-999.974365234375,0.02613394893705845,0.1831783950328827,-0.08595946431159973
1527,1274,-1.051090955734253,0.009194381535053253,-999.974365234375,0.02613394893705845,0.1831783950328827,-0.08595946431159973
1547,1274,-1.051090955734253,0.009194381535053253,-999.974365234375,0.02613394893705845,0.1831783950328827,-0.08595946431159973
1651,1275,0.3819441795349121,1.117393136024475,-999.9453125,0.9421598315238953,-0.5326738953590393,0.27870050072669983
1644,1275,0.3819441795349121,1.117393136024475,-999.9453125,0.9421598315238953,-0.5326738953590393,0.27870050072669983
1614,1275,0.3819441795349121,1.117393136024475,-999.9453125,0.9421598315238953,-0.5326738953590393,0.27870050072669983
1639,1275,0.3819441795349121,1.117393136024475,-999.9453125,0.9421598315238953,-0.5326738953590393,0.27870050072669983
1582,1275,0.3819441795349121,1.117393136024475,-999.9453125,0.9421598315238953,-0.5326738953590393,0.27870050072669983
1575,1275,0.3819441795349121,1.117393136024475,-999.9453125,0.9421598315238953,-0.5326738953590393,0.27870050072669983
1545,1275,0.3819441795349121,1.117393136024475,-999.9453125,0.9421598315238953,-0.5326738953590393,0.27870050072669983
1570,1275,0.3819441795349121,1.117393136024475,-999.9453125,0.9421598315238953,-0.5326738953590393,0.27870050072669983
1616,1276,-0.700446605682373,-0.15211713314056396,-1000.0368041992188,0.10321873426437378,0.09915459901094437,0.28035226464271545
1596,1276,-0.700446605682373,-0.15211713314056396,-1000.0368041992188,0.10321873426437378,0.09915459901094437,0.28035226464271545
1595,1276,-0.700446605682373,-0.15211713314056396,-1000.0368041992188,0.10321873426437378,0.09915459901094437,0.28035226464271545
1617,1276,-0.700446605682373,-0.15211713314056396,-1000.0368041992188,0.10321873426437378,0.09915459901094437,0.28035226464271545
1547,1276,-0.700446605682373,-0.15211713314056396,-1000.0368041992188,0.10321873426437378,0.09915459901094437,0.28035226464271545
1527,1276,-0.700446605682373,-0.15211713314056396,-1000.0368041992188,0.10321873426437378,0.09915459901094437,0.28035226464271545
1526,1276,-0.700446605682373,-0.15211713314056396,-1000.0368041992188,0.10321873426437378,0.09915459901094437,0.28035226464271545
1548,1276,-0.700446605682373,-0.15211713314056396,-1000.0368041992188,0.10321873426437378,0.09915459901094437,0.28035226464271545
1617,1277,-1.0716514587402344,-0.16336829960346222,-999.8828125,-0.01535117533057928,0.06923861801624298,-0.26325878500938416
1595,1277,-1.0716514587402344,-0.16336829960346222,-999.8828125,-0.01535117533057928,0.06923861801624298,-0.26325878500938416
1594,1277,-1.0716514587402344,-0.16336829960346222,-999.8828125,-0.01535117533057928,0.06923861801624298,-0.26325878500938416
1618,1277,-1.0716514587402344,-0.16336829960346222,-999.8828125,-0.01535117533057928,0.06923861801624298,-0.26325878500938416
1548,1277,-1.0716514587402344,-0.16336829960346222,-999.8828125,-0.01535117533057928,0.06923861801624298,-0.26325878500938416
1526,1277,-1.0716514587402344,-0.16336829960346222,-999.8828125,-0.01535117533057928,0.06923861801624298,-0.26325878500938416
1525,1277,-1.0716514587402344,-0.16336829960346222,-999.8828125,-0.01535117533057928,0.06923861801624298,-0.26325878500938416
1549,1277,-1.0716514587402344,-0.16336829960346222,-999.8828125,-0.01535117533057928,0.06923861801624298,-0.26325878500938416
1648,1278,0.3633541762828827,-1.2143969535827637,-999.15087890625,-0.5584375858306885,-0.06825220584869385,-1.3942350149154663
1636,1278,0.3633541762828827,-1.2143969535827637,-999.15087890625,-0.5584375858306885,-0.06825220584869385,-1.3942350149154663
1647,1278,0.3633541762828827,-1.2143969535827637,-999.15087890625,-0.5584375858306885,-0.06825220584869385,-1.3942350149154663
1641,1278,0.3633541762828827,-1.2143969535827637,-999.15087890625,-0.5584375858306885,-0.06825220584869385,-1.3942350149154663
1579,1278,0.3633541762828827,-1.2143969535827637,-999.15087890625,-0.5584375858306885,-0.06825220584869385,-1.3942350149154663
1567,1278,0.3633541762828827,-1.2143969535827637,-999.15087890625,-0.5584375858306885,-0.06825220584869385,-1.3942350149154663
1578,1278,0.3633541762828827,-1.2143969535827637,-999.15087890625,-0.5584375858306885,-0.06825220584869385,-1.3942350149154663
1572,1278,0.3633541762828827,-1.2143969535827637,-999.15087890625,-0.5584375858306885,-0.06825220584869385,-1.3942350149154663
1603,1279,-1.5522668361663818,-0.7424643635749817,-1000.103759765625,-0.43961280584335327,-0.08179616928100586,0.14707578718662262
1615,1279,-1.5522668361663818,-0.7424643635749817,-1000.103759765625,-0.43961280584335327,-0.08179616928100586,0.14707578718662262
1623,1279,-1.5522668361663818,-0.7424643635749817,-1000.103759765625,-0.43961280584335327,-0.08179616928100586,0.14707578718662262
1588,1279,-1.5522668361663818,-0.7424643635749817,-1000.103759765625,-0.43961280584335327,-0.08179616928100586,0.14707578718662262
1534,1279,-1.5522668361663818,-0.7424643635749817,-1000.103759765625,-0.43961280584335327,-0.08179616928100586,0.14707578718662262
1546,1279,-1.5522668361663818,-0.7424643635749817,-1000.103759765625,-0.43961280584335327,-0.08179616928100586,0.14707578718662262
1554,1279,-1.5522668361663818,-0.7424643635749817,-1000.103759765625,-0.43961280584335327,-0.08179616928100586,0.14707578718662262
1519,1279,-1.5522668361663818,-0.7424643635749817,-1000.103759765625,-0.43961280584335327,-0.08179616928100586,0.14707578718662262
1618,1280,-1.5351394414901733,-0.24009211361408234,-1000.1455078125,-0.06532450765371323,0.1642429381608963,0.09424041211605072
1594,1280,-1.5351394414901733,-0.24009211361408234,-1000.1455078125,-0.06532450765371323,0.1642429381608963,0.09424041211605072
1606,1280,-1.5351394414901733,-0.24009211361408234,-1000.1455078125,-0.06532450765371323,0.1642429381608963,0.09424041211605072
1626,1280,-1.5351394414901733,-0.24009211361408234,-1000.1455078125,-0.06532450765371323,0.1642429381608963,0.09424041211605072
1549,1280,-1.5351394414901733,-0.24009211361408234,-1000.1455078125,-0.06532450765371323,0.1642429381608963,0.09424041211605072
1525,1280,-1.5351394414901733,-0.24009211361408234,-1000.1455078125,-0.06532450765371323,0.1642429381608963,0.09424041211605072
1537,1280,-1.5351394414901733,-0.24009211361408234,-1000.1455078125,-0.06532450765371323,0.1642429381608963,0.09424041211605072
1557,1280,-1.5351394414901733,-0.24009211361408234,-1000.1455078125,-0.06532450765371323,0.1642429381608963,0.09424041211605072
1626,1281,-1.0919537544250488,-0.23794519901275635,-999.7986450195312,0.5204893946647644,-0.034495651721954346,-0.25097230076789856
1606,1281,-1.0919537544250488,-0.23794519901275635,-999.7986450195312,0.5204893946647644,-0.034495651721954346,-0.25097230076789856
1593,1281,-1.0919537544250488,-0.23794519901275635,-999.7986450195312,0.5204893946647644,-0.034495651721954346,-0.25097230076789856
1619,1281,-1.0919537544250488,-0.23794519901275635,-999.7986450195312,0.5204893946647644,-0.034495651721954346,-0.25097230076789856
1557,1281,-1.0919537544250488,-0.23794519901275635,-999.7986450195312,0.5204893946647644,-0.034495651721954346,-0.25097230076789856
1537,1281,-1.0919537544250488,-0.23794519901275635,-999.7986450195312,0.5204893946647644,-0.034495651721954346,-0.25097230076789856
1524,1281,-1.0919537544250488,-0.23794519901275635,-999.7986450195312,0.5204893946647644,-0.034495651721954346,-0.25097230076789856
1550,1281,-1.0919537544250488,-0.23794519901275635,-999.7986450195312,0.5204893946647644,-0.034495651721954346,-0.25097230076789856
1619,1282,-0.9160303473472595,-1.2579208612442017,-1000.1857299804688,0.5057633519172668,0.08890090882778168,0.10647296160459518
1593,1282,-0.9160303473472595,-1.2579208612442017,-1000.1857299804688,0.5057633519172668,0.08890090882778168,0.10647296160459518
1592,1282,-0.9160303473472595,-1.2579208612442017,-1000.1857299804688,0.5057633519172668,0.08890090882778168,0.10647296160459518
1620,1282,-0.9160303473472595,-1.2579208612442017,-1000.1857299804688,0.5057633519172668,0.08890090882778168,0.10647296160459518
1550,1282,-0.9160303473472595,-1.2579208612442017,-1000.1857299804688,0.5057633519172668,0.08890090882778168,0.10647296160459518
1524,1282,-0.9160303473472595,-1.2579208612442017,-1000.1857299804688,0.5057633519172668,0.08890090882778168,0.10647296160459518
1523,1282,-0.9160303473472595,-1.2579208612442017,-1000.1857299804688,0.5057633519172668,0.08890090882778168,0.10647296160459518
1551,1282,-0.9160303473472595,-1.2579208612442017,-1000.1857299804688,0.5057633519172668,0.08890090882778168,0.10647296160459518
1620,1283,-0.3391456604003906,-1.3802491426467896,-999.8319091796875,0.17077791690826416,0.011275644414126873,-0.1722227931022644
1592,1283,-0.3391456604003906,-1.3802491426467896,-999.8319091796875,0.17077791690826416,0.011275644414126873,-0.1722227931022644
1605,1283,-0.3391456604003906,-1.3802491426467896,-999.8319091796875,0.17077791690826416,0.011275644414126873,-0.1722227931022644
1625,1283,-0.3391456604003906,-1.3802491426467896,-999.8319091796875,0.17077791690826416,0.011275644414126873,-0.1722227931022644
1551,1283,-0.3391456604003906,-1.3802491426467896,-999.8319091796875,0.17077791690826416,0.011275644414126873,-0.1722227931022644
1523,1283,-0.3391456604003906,-1.3802491426467896,-999.8319091796875,0.17077791690826416,0.011275644414126873,-0.1722227931022644
1536,1283,-0.3391456604003906,-1.3802491426467896,-999.8319091796875,0.17077791690826416,0.011275644414126873,-0.1722227931022644
1556,1283,-0.3391456604003906,-1.3802491426467896,-999.8319091796875,0.17077791690826416,0.011275644414126873,-0.1722227931022644
1625,1284,-0.48789075016975403,-1.4988148212432861,-1000.168212890625,0.040744416415691376,0.13652771711349487,-0.2401410937309265
1605,1284,-0.48789075016975403,-1.4988148212432861,-1000.168212890625,0.040744416415691376,0.13652771711349487,-0.2401410937309265
1591,1284,-0.48789075016975403,-1.4988148212432861,-1000.168212890625,0.040744416415691376,0.13652771711349487,-0.2401410937309265
1621,1284,-0.48789075016975403,-1.4988148212432861,-1000.168212890625,0.040744416415691376,0.13652771711349487,-0.2401410937309265
1556,1284,-0.48789075016975403,-1.4988148212432861,-1000.168212890625,0.040744416415691376,0.13652771711349487,-0.2401410937309265
1536,1284,-0.48789075016975403,-1.4988148212432861,-1000.168212890625,0.040744416415691376,0.13652771711349487,-0.2401410937309265
1522,1284,-0.48789075016975403,-1.4988148212432861,-1000.168212890625,0.040744416415691376,0.13652771711349487,-0.2401410937309265
1552,1284,-0.48789075016975403,-1.4988148212432861,-1000.168212890625,0.040744416415691376,0.13652771711349487,-0.2401410937309265
1645,1285,-1.1877319812774658,-1.4566733837127686,-1000.1527709960938,-0.5435327291488647,0.14785194396972656,-0.025323668494820595
1590,1285,-1.1877319812774658,-1.4566733837127686,-1000.1527709960938,-0.5435327291488647,0.14785194396972656,-0.025323668494820595
1589,1285,-1.1877319812774658,-1.4566733837127686,-1000.1527709960938,-0.5435327291488647,0.14785194396972656,-0.025323668494820595
1646,1285,-1.1877319812774658,-1.4566733837127686,-1000.1527709960938,-0.5435327291488647,0.14785194396972656,-0.025323668494820595
1576,1285,-1.1877319812774658,-1.4566733837127686,-1000.1527709960938,-0.5435327291488647,0.14785194396972656,-0.025323668494820595
1521,1285,-1.1877319812774658,-1.4566733837127686,-1000.1527709960938,-0.5435327291488647,0.14785194396972656,-0.025323668494820595
1520,1285,-1.1877319812774658,-1.4566733837127686,-1000.1527709960938,-0.5435327291488647,0.14785194396972656,-0.025323668494820595
1577,1285,-1.1877319812774658,-1.4566733837127686,-1000.1527709960938,-0.5435327291488647,0.14785194396972656,-0.025323668494820595
1624,1286,-0.5413522720336914,-0.5533766746520996,-999.9129638671875,-0.40168192982673645,-0.15887056291103363,-0.15562863647937775
1604,1286,-0.5413522720336914,-0.5533766746520996,-999.9129638671875,-0.40168192982673645,-0.15887056291103363,-0.15562863647937775
1588,1286,-0.5413522720336914,-0.5533766746520996,-999.9129638671875,-0.40168192982673645,-0.15887056291103363,-0.15562863647937775
1623,1286,-0.5413522720336914,-0.5533766746520996,-999.9129638671875,-0.40168192982673645,-0.15887056291103363,-0.15562863647937775
1555,1286,-0.5413522720336914,-0.5533766746520996,-999.9129638671875,-0.40168192982673645,-0.15887056291103363,-0.15562863647937775
1535,1286,-0.5413522720336914,-0.5533766746520996,-999.9129638671875,-0.40168192982673645,-0.15887056291103363,-0.15562863647937775
1519,1286,-0.5413522720336914,-0.5533766746520996,-999.9129638671875,-0.40168192982673645,-0.15887056291103363,-0.15562863647937775
1554,1286,-0.5413522720336914,-0.5533766746520996,-999.9129638671875,-0.40168192982673645,-0.15887056291103363,-0.15562863647937775
1647,1287,3.1041922569274902,2.7052457332611084,-998.3200073242188,0.6412447094917297,0.06451360881328583,0.6848925948143005
1623,1287,3.1041922569274902,2.7052457332611084,-998.3200073242188,0.6412447094917297,0.06451360881328583,0.6848925948143005
1615,1287,3.1041922569274902,2.7052457332611084,-998.3200073242188,0.6412447094917297,0.06451360881328583,0.6848925948143005
1630,1287,3.1041922569274902,2.7052457332611084,-998.3200073242188,0.6412447094917297,0.06451360881328583,0.6848925948143005
1578,1287,3.1041922569274902,2.7052457332611084,-998.3200073242188,0.6412447094917297,0.06451360881328583,0.6848925948143005
1554,1287,3.1041922569274902,2.7052457332611084,-998.3200073242188,0.6412447094917297,0.06451360881328583,0.6848925948143005
1546,1287,3.1041922569274902,2.7052457332611084,-998.3200073242188,0.6412447094917297,0.06451360881328583,0.6848925948143005
1561,1287,3.1041922569274902,2.7052457332611084,-998.3200073242188,0.6412447094917297,0.06451360881328583,0.6848925948143005
1646,1288,1.531280517578125,2.6540257930755615,-999.1197509765625,0.3685159683227539,0.03278296813368797,0.442673921585083
1624,1288,1.531280517578125,2.6540257930755615,-999.1197509765625,0.3685159683227539,0.03278296813368797,0.442673921585083
1636,1288,1.531280517578125,2.6540257930755615,-999.1197509765625,0.3685159683227539,0.03278296813368797,0.442673921585083
1622,1288,1.531280517578125,2.6540257930755615,-999.1197509765625,0.3685159683227539,0.03278296813368797,0.442673921585083
1577,1288,1.531280517578125,2.6540257930755615,-999.1197509765625,0.3685159683227539,0.03278296813368797,0.442673921585083
1555,1288,1.531280517578125,2.6540257930755615,-999.1197509765625,0.3685159683227539,0.03278296813368797,0.442673921585083
1567,1288,1.531280517578125,2.6540257930755615,-999.1197509765625,0.3685159683227539,0.03278296813368797,0.442673921585083
1553,1288,1.531280517578125,2.6540257930755615,-999.1197509765625,0.3685159683227539,0.03278296813368797,0.442673921585083
1621,1289,-0.355124831199646,-1.0456457138061523,-999.8916625976562,-0.45656803250312805,-0.14483870565891266,-0.11958477646112442
1591,1289,-0.355124831199646,-1.0456457138061523,-999.8916625976562,-0.45656803250312805,-0.14483870565891266,-0.11958477646112442
1590,1289,-0.355124831199646,-1.0456457138061523,-999.8916625976562,-0.45656803250312805,-0.14483870565891266,-0.11958477646112442
1645,1289,-0.355124831199646,-1.0456457138061523,-999.8916625976562,-0.45656803250312805,-0.14483870565891266,-0.11958477646112442
1552,1289,-0.355124831199646,-1.0456457138061523,-999.8916625976562,-0.45656803250312805,-0.14483870565891266,-0.11958477646112442
1522,1289,-0.355124831199646,-1.0456457138061523,-999.8916625976562,-0.45656803250312805,-0.14483870565891266,-0.11958477646112442
1521,1289,-0.355124831199646,-1.0456457138061523,-999.8916625976562,-0.45656803250312805,-0.14483870565891266,-0.11958477646112442
1576,1289,-0.355124831199646,-1.0456457138061523,-999.8916625976562,-0.45656803250312805,-0.14483870565891266,-0.11958477646112442
1630,1290,1.1419137716293335,-1.0531196594238281,-1001.8543090820312,-0.22525012493133545,0.9018380045890808,-1.0377981662750244
1615,1290,1.1419137716293335,-1.0531196594238281,-1001.8543090820312,-0.22525012493133545,0.9018380045890808,-1.0377981662750244
1612,1290,1.1419137716293335,-1.0531196594238281,-1001.8543090820312,-0.22525012493133545,0.9018380045890808,-1.0377981662750244
1656,1290,1.1419137716293335,-1.0531196594238281,-1001.8543090820312,-0.22525012493133545,0.9018380045890808,-1.0377981662750244
1561,1290,1.1419137716293335,-1.0531196594238281,-1001.8543090820312,-0.22525012493133545,0.9018380045890808,-1.0377981662750244
1546,1290,1.1419137716293335,-1.0531196594238281,-1001.8543090820312,-0.22525012493133545,0.9018380045890808,-1.0377981662750244
1543,1290,1.1419137716293335,-1.0531196594238281,-1001.8543090820312,-0.22525012493133545,0.9018380045890808,-1.0377981662750244
1587,1290,1.1419137716293335,-1.0531196594238281,-1001.8543090820312,-0.22525012493133545,0.9018380045890808,-1.0377981662750244
1641,1291,-0.21541908383369446,0.34274381399154663,-999.7586669921875,0.9557831883430481,-0.18548227846622467,-0.08087333291769028
1656,1291,-0.21541908383369446,0.34274381399154663,-999.7586669921875,0.9557831883430481,-0.18548227846622467,-0.08087333291769028
1632,1291,-0.21541908383369446,0.34274381399154663,-999.7586669921875,0.9557831883430481,-0.18548227846622467,-0.08087333291769028
1640,1291,-0.21541908383369446,0.34274381399154663,-999.7586669921875,0.9557831883430481,-0.18548227846622467,-0.08087333291769028
1572,1291,-0.21541908383369446,0.34274381399154663,-999.7586669921875,0.9557831883430481,-0.18548227846622467,-0.08087333291769028
1587,1291,-0.21541908383369446,0.34274381399154663,-999.7586669921875,0.9557831883430481,-0.18548227846622467,-0.08087333291769028
1563,1291,-0.21541908383369446,0.34274381399154663,-999.7586669921875,0.9557831883430481,-0.18548227846622467,-0.08087333291769028
1571,1291,-0.21541908383369446,0.34274381399154663,-999.7586669921875,0.9557831883430481,-0.18548227846622467,-0.08087333291769028
1611,1292,0.33118587732315063,1.6297014951705933,-1001.0842895507812,-0.39452993869781494,0.7659826874732971,-0.3565535247325897
1628,1292,0.33118587732315063,1.6297014951705933,-1001.0842895507812,-0.39452993869781494,0.7659826874732971,-0.3565535247325897
1650,1292,0.33118587732315063,1.6297014951705933,-1001.0842895507812,-0.39452993869781494,0.7659826874732971,-0.3565535247325897
1635,1292,0.33118587732315063,1.6297014951705933,-1001.0842895507812,-0.39452993869781494,0.7659826874732971,-0.3565535247325897
1542,1292,0.33118587732315063,1.6297014951705933,-1001.0842895507812,-0.39452993869781494,0.7659826874732971,-0.3565535247325897
1559,1292,0.33118587732315063,1.6297014951705933,-1001.0842895507812,-0.39452993869781494,0.7659826874732971,-0.3565535247325897
1581,1292,0.33118587732315063,1.6297014951705933,-1001.0842895507812,-0.39452993869781494,0.7659826874732971,-0.3565535247325897
1566,1292,0.33118587732315063,1.6297014951705933,-1001.0842895507812,-0.39452993869781494,0.7659826874732971,-0.3565535247325897
1635,1293,0.5774447321891785,-2.6364877223968506,-999.9491577148438,0.06183626875281334,-0.1926022320985794,0.9239212274551392
1650,1293,0.5774447321891785,-2.6364877223968506,-999.9491577148438,0.06183626875281334,-0.1926022320985794,0.9239212274551392
1634,1293,0.5774447321891785,-2.6364877223968506,-999.9491577148438,0.06183626875281334,-0.1926022320985794,0.9239212274551392
1640,1293,0.5774447321891785,-2.6364877223968506,-999.9491577148438,0.06183626875281334,-0.1926022320985794,0.9239212274551392
1566,1293,0.5774447321891785,-2.6364877223968506,-999.9491577148438,0.06183626875281334,-0.1926022320985794,0.9239212274551392
1581,1293,0.5774447321891785,-2.6364877223968506,-999.9491577148438,0.06183626875281334,-0.1926022320985794,0.9239212274551392
1565,1293,0.5774447321891785,-2.6364877223968506,-999.9491577148438,0.06183626875281334,-0.1926022320985794,0.9239212274551392
1571,1293,0.5774447321891785,-2.6364877223968506,-999.9491577148438,0.06183626875281334,-0.1926022320985794,0.9239212274551392
1637,1294,1.0187042951583862,2.484870433807373,-999.5992431640625,0.32281678915023804,-0.03192588686943054,1.0525678396224976
1625,1294,1.0187042951583862,2.484870433807373,-999.5992431640625,0.32281678915023804,-0.03192588686943054,1.0525678396224976
1621,1294,1.0187042951583862,2.484870433807373,-999.5992431640625,0.32281678915023804,-0.03192588686943054,1.0525678396224976
1645,1294,1.0187042951583862,2.484870433807373,-999.5992431640625,0.32281678915023804,-0.03192588686943054,1.0525678396224976
1568,1294,1.0187042951583862,2.484870433807373,-999.5992431640625,0.32281678915023804,-0.03192588686943054,1.0525678396224976
1556,1294,1.0187042951583862,2.484870433807373,-999.5992431640625,0.32281678915023804,-0.03192588686943054,1.0525678396224976
1552,1294,1.0187042951583862,2.484870433807373,-999.5992431640625,0.32281678915023804,-0.03192588686943054,1.0525678396224976
1576,1294,1.0187042951583862,2.484870433807373,-999.5992431640625,0.32281678915023804,-0.03192588686943054,1.0525678396224976
1635,1295,-1.7765060663223267,-2.167762279510498,-1000.5881958007812,0.5792474746704102,-0.8238290548324585,-0.1513817012310028
1640,1295,-1.7765060663223267,-2.167762279510498,-1000.5881958007812,0.5792474746704102,-0.8238290548324585,-0.1513817012310028
1632,1295,-1.7765060663223267,-2.167762279510498,-1000.5881958007812,0.5792474746704102,-0.8238290548324585,-0.1513817012310028
1649,1295,-1.7765060663223267,-2.167762279510498,-1000.5881958007812,0.5792474746704102,-0.8238290548324585,-0.1513817012310028
1566,1295,-1.7765060663223267,-2.167762279510498,-1000.5881958007812,0.5792474746704102,-0.8238290548324585,-0.1513817012310028
1571,1295,-1.7765060663223267,-2.167762279510498,-1000.5881958007812,0.5792474746704102,-0.8238290548324585,-0.1513817012310028
1563,1295,-1.7765060663223267,-2.167762279510498,-1000.5881958007812,0.5792474746704102,-0.8238290548324585,-0.1513817012310028
1580,1295,-1.7765060663223267,-2.167762279510498,-1000.5881958007812,0.5792474746704102,-0.8238290548324585,-0.1513817012310028
1613,1296,0.8565797805786133,2.9597043991088867,-999.9571533203125,-0.2923019826412201,0.21964438259601593,-0.06607849150896072
1644,1296,0.8565797805786133,2.9597043991088867,-999.9571533203125,-0.2923019826412201,0.21964438259601593,-0.06607849150896072
1651,1296,0.8565797805786133,2.9597043991088867,-999.9571533203125,-0.2923019826412201,0.21964438259601593,-0.06607849150896072
1634,1296,0.8565797805786133,2.9597043991088867,-999.9571533203125,-0.2923019826412201,0.21964438259601593,-0.06607849150896072
1544,1296,0.8565797805786133,2.9597043991088867,-999.9571533203125,-0.2923019826412201,0.21964438259601593,-0.06607849150896072
1575,1296,0.8565797805786133,2.9597043991088867,-999.9571533203125,-0.2923019826412201,0.21964438259601593,-0.06607849150896072
1582,1296,0.8565797805786133,2.9597043991088867,-999.9571533203125,-0.2923019826412201,0.21964438259601593,-0.06607849150896072
1565,1296,0.8565797805786133,2.9597043991088867,-999.9571533203125,-0.2923019826412201,0.21964438259601593,-0.06607849150896072
1655,1297,-1.3924494981765747,-1.862210750579834,-999.76416015625,-0.2683407962322235,0.8193331360816956,-0.6343107223510742
1637,1297,-1.3924494981765747,-1.862210750579834,-999.76416015625,-0.2683407962322235,0.8193331360816956,-0.6343107223510742
1622,1297,-1.3924494981765747,-1.862210750579834,-999.76416015625,-0.2683407962322235,0.8193331360816956,-0.6343107223510742
1643,1297,-1.3924494981765747,-1.862210750579834,-999.76416015625,-0.2683407962322235,0.8193331360816956,-0.6343107223510742
1586,1297,-1.3924494981765747,-1.862210750579834,-999.76416015625,-0.2683407962322235,0.8193331360816956,-0.6343107223510742
1568,1297,-1.3924494981765747,-1.862210750579834,-999.76416015625,-0.2683407962322235,0.8193331360816956,-0.6343107223510742
1553,1297,-1.3924494981765747,-1.862210750579834,-999.76416015625,-0.2683407962322235,0.8193331360816956,-0.6343107223510742
1574,1297,-1.3924494981765747,-1.862210750579834,-999.76416015625,-0.2683407962322235,0.8193331360816956,-0.6343107223510742
1631,1298,-3.4117748737335205,0.42158591747283936,-1000.3738403320312,-0.2126275897026062,1.1543402671813965,0.26688194274902344
1653,1298,-3.4117748737335205,0.42158591747283936,-1000.3738403320312,-0.2126275897026062,1.1543402671813965,0.26688194274902344
1638,1298,-3.4117748737335205,0.42158591747283936,-1000.3738403320312,-0.2126275897026062,1.1543402671813965,0.26688194274902344
1642,1298,-3.4117748737335205,0.42158591747283936,-1000.3738403320312,-0.2126275897026062,1.1543402671813965,0.26688194274902344
1562,1298,-3.4117748737335205,0.42158591747283936,-1000.3738403320312,-0.2126275897026062,1.1543402671813965,0.26688194274902344
1584,1298,-3.4117748737335205,0.42158591747283936,-1000.3738403320312,-0.2126275897026062,1.1543402671813965,0.26688194274902344
1569,1298,-3.4117748737335205,0.42158591747283936,-1000.3738403320312,-0.2126275897026062,1.1543402671813965,0.26688194274902344
1573,1298,-3.4117748737335205,0.42158591747283936,-1000.3738403320312,-0.2126275897026062,1.1543402671813965,0.26688194274902344
1654,1299,0.1133459284901619,-0.32862362265586853,-1001.0802001953125,-1.5780106782913208,-0.36679837107658386,0.16345256567001343
1626,1299,0.1133459284901619,-0.32862362265586853,-1001.0802001953125,-1.5780106782913208,-0.36679837107658386,0.16345256567001343
1619,1299,0.1133459284901619,-0.32862362265586853,-1001.0802001953125,-1.5780106782913208,-0.36679837107658386,0.16345256567001343
1633,1299,0.1133459284901619,-0.32862362265586853,-1001.0802001953125,-1.5780106782913208,-0.36679837107658386,0.16345256567001343
1585,1299,0.1133459284901619,-0.32862362265586853,-1001.0802001953125,-1.5780106782913208,-0.36679837107658386,0.16345256567001343
1557,1299,0.1133459284901619,-0.32862362265586853,-1001.0802001953125,-1.5780106782913208,-0.36679837107658386,0.16345256567001343
1550,1299,0.1133459284901619,-0.32862362265586853,-1001.0802001953125,-1.5780106782913208,-0.36679837107658386,0.16345256567001343
1564,1299,0.1133459284901619,-0.32862362265586853,-1001.0802001953125,-1.5780106782913208,-0.36679837107658386,0.16345256567001343
1643,1300,0.498085081577301,-0.7921483516693115,-1000.1636962890625,0.9018840193748474,-0.3765698969364166,0.2735050320625305
1642,1300,0.498085081577301,-0.7921483516693115,-1000.1636962890625,0.9018840193748474,-0.3765698969364166,0.2735050320625305
1633,1300,0.498085081577301,-0.7921483516693115,-1000.1636962890625,0.9018840193748474,-0.3765698969364166,0.2735050320625305
1655,1300,0.498085081577301,-0.7921483516693115,-1000.1636962890625,0.9018840193748474,-0.3765698969364166,0.2735050320625305
1574,1300,0.498085081577301,-0.7921483516693115,-1000.1636962890625,0.9018840193748474,-0.3765698969364166,0.2735050320625305
1573,1300,0.498085081577301,-0.7921483516693115,-1000.1636962890625,0.9018840193748474,-0.3765698969364166,0.2735050320625305
1564,1300,0.498085081577301,-0.7921483516693115,-1000.1636962890625,0.9018840193748474,-0.3765698969364166,0.2735050320625305
1586,1300,0.498085081577301,-0.7921483516693115,-1000.1636962890625,0.9018840193748474,-0.3765698969364166,0.2735050320625305
1643,1301,0.4875597357749939,1.745819091796875,-999.97314453125,-0.05323806777596474,1.7038946151733398,0.13829852640628815
1648,1301,0.4875597357749939,1.745819091796875,-999.97314453125,-0.05323806777596474,1.7038946151733398,0.13829852640628815
1641,1301,0.4875597357749939,1.745819091796875,-999.97314453125,-0.05323806777596474,1.7038946151733398,0.13829852640628815
1640,1301,0.4875597357749939,1.745819091796875,-999.97314453125,-0.05323806777596474,1.7038946151733398,0.13829852640628815
1574,1301,0.4875597357749939,1.745819091796875,-999.97314453125,-0.05323806777596474,1.7038946151733398,0.13829852640628815
1579,1301,0.4875597357749939,1.745819091796875,-999.97314453125,-0.05323806777596474,1.7038946151733398,0.13829852640628815
1572,1301,0.4875597357749939,1.745819091796875,-999.97314453125,-0.05323806777596474,1.7038946151733398,0.13829852640628815
1571,1301,0.4875597357749939,1.745819091796875,-999.97314453125,-0.05323806777596474,1.7038946151733398,0.13829852640628815
1633,1302,-2.19081449508667,-1.5352444648742676,-999.848388671875,0.5918290615081787,0.6328821778297424,-1.2009867429733276
1642,1302,-2.19081449508667,-1.5352444648742676,-999.848388671875,0.5918290615081787,0.6328821778297424,-1.2009867429733276
1638,1302,-2.19081449508667,-1.5352444648742676,-999.848388671875,0.5918290615081787,0.6328821778297424,-1.2009867429733276
1654,1302,-2.19081449508667,-1.5352444648742676,-999.848388671875,0.5918290615081787,0.6328821778297424,-1.2009867429733276
1564,1302,-2.19081449508667,-1.5352444648742676,-999.848388671875,0.5918290615081787,0.6328821778297424,-1.2009867429733276
1573,1302,-2.19081449508667,-1.5352444648742676,-999.848388671875,0.5918290615081787,0.6328821778297424,-1.2009867429733276
1569,1302,-2.19081449508667,-1.5352444648742676,-999.848388671875,0.5918290615081787,0.6328821778297424,-1.2009867429733276
1585,1302,-2.19081449508667,-1.5352444648742676,-999.848388671875,0.5918290615081787,0.6328821778297424,-1.2009867429733276
1644,1303,-0.403267502784729,-1.2822589874267578,-999.9561767578125,-0.4719255268573761,0.11556655913591385,-0.08189127594232559
1598,1303,-0.403267502784729,-1.2822589874267578,-999.9561767578125,-0.4719255268573761,0.11556655913591385,-0.08189127594232559
1597,1303,-0.403267502784729,-1.2822589874267578,-999.9561767578125,-0.4719255268573761,0.11556655913591385,-0.08189127594232559
1614,1303,-0.403267502784729,-1.2822589874267578,-999.9561767578125,-0.4719255268573761,0.11556655913591385,-0.08189127594232559
1575,1303,-0.403267502784729,-1.2822589874267578,-999.9561767578125,-0.4719255268573761,0.11556655913591385,-0.08189127594232559
1529,1303,-0.403267502784729,-1.2822589874267578,-999.9561767578125,-0.4719255268573761,0.11556655913591385,-0.08189127594232559
1528,1303,-0.403267502784729,-1.2822589874267578,-999.9561767578125,-0.4719255268573761,0.11556655913591385,-0.08189127594232559
1545,1303,-0.403267502784729,-1.2822589874267578,-999.9561767578125,-0.4719255268573761,0.11556655913591385,-0.08189127594232559
1646,1304,-0.9283979535102844,-1.3196814060211182,-1000.0447387695312,-0.632763683795929,-0.10330383479595184,0.10980990529060364
1589,1304,-0.9283979535102844,-1.3196814060211182,-1000.0447387695312,-0.632763683795929,-0.10330383479595184,0.10980990529060364
1604,1304,-0.9283979535102844,-1.3196814060211182,-1000.0447387695312,-0.632763683795929,-0.10330383479595184,0.10980990529060364
1624,1304,-0.9283979535102844,-1.3196814060211182,-1000.0447387695312,-0.632763683795929,-0.10330383479595184,0.10980990529060364
1577,1304,-0.9283979535102844,-1.3196814060211182,-1000.0447387695312,-0.632763683795929,-0.10330383479595184,0.10980990529060364
1520,1304,-0.9283979535102844,-1.3196814060211182,-1000.0447387695312,-0.632763683795929,-0.10330383479595184,0.10980990529060364
1535,1304,-0.9283979535102844,-1.3196814060211182,-1000.0447387695312,-0.632763683795929,-0.10330383479595184,0.10980990529060364
1555,1304,-0.9283979535102844,-1.3196814060211182,-1000.0447387695312,-0.632763683795929,-0.10330383479595184,0.10980990529060364
1623,1305,-0.2598012387752533,-0.43717774748802185,-1001.2235717773438,0.7295867800712585,0.9066264033317566,-0.4964883327484131
1647,1305,-0.2598012387752533,-0.43717774748802185,-1001.2235717773438,0.7295867800712585,0.9066264033317566,-0.4964883327484131
1636,1305,-0.2598012387752533,-0.43717774748802185,-1001.2235717773438,0.7295867800712585,0.9066264033317566,-0.4964883327484131
1624,1305,-0.2598012387752533,-0.43717774748802185,-1001.2235717773438,0.7295867800712585,0.9066264033317566,-0.4964883327484131
1554,1305,-0.2598012387752533,-0.43717774748802185,-1001.2235717773438,0.7295867800712585,0.9066264033317566,-0.4964883327484131
1578,1305,-0.2598012387752533,-0.43717774748802185,-1001.2235717773438,0.7295867800712585,0.9066264033317566,-0.4964883327484131
1567,1305,-0.2598012387752533,-0.43717774748802185,-1001.2235717773438,0.7295867800712585,0.9066264033317566,-0.4964883327484131
1555,1305,-0.2598012387752533,-0.43717774748802185,-1001.2235717773438,0.7295867800712585,0.9066264033317566,-0.4964883327484131
1647,1306,-2.8564579486846924,-1.6904113292694092,-1000.5794067382812,-0.5426825284957886,-1.919427514076233,1.0186775922775269
1630,1306,-2.8564579486846924,-1.6904113292694092,-1000.5794067382812,-0.5426825284957886,-1.919427514076233,1.0186775922775269
1656,1306,-2.8564579486846924,-1.6904113292694092,-1000.5794067382812,-0.5426825284957886,-1.919427514076233,1.0186775922775269
1641,1306,-2.8564579486846924,-1.6904113292694092,-1000.5794067382812,-0.5426825284957886,-1.919427514076233,1.0186775922775269
1578,1306,-2.8564579486846924,-1.6904113292694092,-1000.5794067382812,-0.5426825284957886,-1.919427514076233,1.0186775922775269
1561,1306,-2.8564579486846924,-1.6904113292694092,-1000.5794067382812,-0.5426825284957886,-1.919427514076233,1.0186775922775269
1587,1306,-2.8564579486846924,-1.6904113292694092,-1000.5794067382812,-0.5426825284957886,-1.919427514076233,1.0186775922775269
1572,1306,-2.8564579486846924,-1.6904113292694092,-1000.5794067382812,-0.5426825284957886,-1.919427514076233,1.0186775922775269
1649,1307,0.9601950645446777,3.1722214221954346,-998.2510375976562,-0.14490631222724915,0.09918101131916046,0.1717042773962021
1610,1307,0.9601950645446777,3.1722214221954346,-998.2510375976562,-0.14490631222724915,0.09918101131916046,0.1717042773962021
1611,1307,0.9601950645446777,3.1722214221954346,-998.2510375976562,-0.14490631222724915,0.09918101131916046,0.1717042773962021
1635,1307,0.9601950645446777,3.1722214221954346,-998.2510375976562,-0.14490631222724915,0.09918101131916046,0.1717042773962021
1580,1307,0.9601950645446777,3.1722214221954346,-998.2510375976562,-0.14490631222724915,0.09918101131916046,0.1717042773962021
1541,1307,0.9601950645446777,3.1722214221954346,-998.2510375976562,-0.14490631222724915,0.09918101131916046,0.1717042773962021
1542,1307,0.9601950645446777,3.1722214221954346,-998.2510375976562,-0.14490631222724915,0.09918101131916046,0.1717042773962021
1566,1307,0.9601950645446777,3.1722214221954346,-998.2510375976562,-0.14490631222724915,0.09918101131916046,0.1717042773962021
1650,1308,0.3006061613559723,2.3759853839874268,-999.53125,0.24632592499256134,-0.6853699088096619,-0.27896955609321594
1628,1308,0.3006061613559723,2.3759853839874268,-999.53125,0.24632592499256134,-0.6853699088096619,-0.27896955609321594
1613,1308,0.3006061613559723,2.3759853839874268,-999.53125,0.24632592499256134,-0.6853699088096619,-0.27896955609321594
1634,1308,0.3006061613559723,2.3759853839874268,-999.53125,0.24632592499256134,-0.6853699088096619,-0.27896955609321594
1581,1308,0.3006061613559723,2.3759853839874268,-999.53125,0.24632592499256134,-0.6853699088096619,-0.27896955609321594
1559,1308,0.3006061613559723,2.3759853839874268,-999.53125,0.24632592499256134,-0.6853699088096619,-0.27896955609321594
1544,1308,0.3006061613559723,2.3759853839874268,-999.53125,0.24632592499256134,-0.6853699088096619,-0.27896955609321594
1565,1308,0.3006061613559723,2.3759853839874268,-999.53125,0.24632592499256134,-0.6853699088096619,-0.27896955609321594
1652,1309,1.454685091972351,-0.28226205706596375,-1000.267578125,0.012948987074196339,-1.0539462566375732,0.040638502687215805
1627,1309,1.454685091972351,-0.28226205706596375,-1000.267578125,0.012948987074196339,-1.0539462566375732,0.040638502687215805
1616,1309,1.454685091972351,-0.28226205706596375,-1000.267578125,0.012948987074196339,-1.0539462566375732,0.040638502687215805
1631,1309,1.454685091972351,-0.28226205706596375,-1000.267578125,0.012948987074196339,-1.0539462566375732,0.040638502687215805
1583,1309,1.454685091972351,-0.28226205706596375,-1000.267578125,0.012948987074196339,-1.0539462566375732,0.040638502687215805
1558,1309,1.454685091972351,-0.28226205706596375,-1000.267578125,0.012948987074196339,-1.0539462566375732,0.040638502687215805
1547,1309,1.454685091972351,-0.28226205706596375,-1000.267578125,0.012948987074196339,-1.0539462566375732,0.040638502687215805
1562,1309,1.454685091972351,-0.28226205706596375,-1000.267578125,0.012948987074196339,-1.0539462566375732,0.040638502687215805
1653,1310,1.727018117904663,-0.2269476056098938,-1000.9508056640625,-0.5384193062782288,-0.8940438628196716,0.44951140880584717
1617,1310,1.727018117904663,-0.2269476056098938,-1000.9508056640625,-0.5384193062782288,-0.8940438628196716,0.44951140880584717
1618,1310,1.727018117904663,-0.2269476056098938,-1000.9508056640625,-0.5384193062782288,-0.8940438628196716,0.44951140880584717
1638,1310,1.727018117904663,-0.2269476056098938,-1000.9508056640625,-0.5384193062782288,-0.8940438628196716,0.44951140880584717
1584,1310,1.727018117904663,-0.2269476056098938,-1000.9508056640625,-0.5384193062782288,-0.8940438628196716,0.44951140880584717
1548,1310,1.727018117904663,-0.2269476056098938,-1000.9508056640625,-0.5384193062782288,-0.8940438628196716,0.44951140880584717
1549,1310,1.727018117904663,-0.2269476056098938,-1000.9508056640625,-0.5384193062782288,-0.8940438628196716,0.44951140880584717
1569,1310,1.727018117904663,-0.2269476056098938,-1000.9508056640625,-0.5384193062782288,-0.8940438628196716,0.44951140880584717
1655,1311,-0.37746331095695496,0.5672432780265808,-1000.5655517578125,-0.6305839419364929,-0.4108535647392273,-0.009247240610420704
1620,1311,-0.37746331095695496,0.5672432780265808,-1000.5655517578125,-0.6305839419364929,-0.4108535647392273,-0.009247240610420704
1625,1311,-0.37746331095695496,0.5672432780265808,-1000.5655517578125,-0.6305839419364929,-0.4108535647392273,-0.009247240610420704
1637,1311,-0.37746331095695496,0.5672432780265808,-1000.5655517578125,-0.6305839419364929,-0.4108535647392273,-0.009247240610420704
1586,1311,-0.37746331095695496,0.5672432780265808,-1000.5655517578125,-0.6305839419364929,-0.4108535647392273,-0.009247240610420704
1551,1311,-0.37746331095695496,0.5672432780265808,-1000.5655517578125,-0.6305839419364929,-0.4108535647392273,-0.009247240610420704
1556,1311,-0.37746331095695496,0.5672432780265808,-1000.5655517578125,-0.6305839419364929,-0.4108535647392273,-0.009247240610420704
1568,1311,-0.37746331095695496,0.5672432780265808,-1000.5655517578125,-0.6305839419364929,-0.4108535647392273,-0.009247240610420704
1680,1312,0.2167433500289917,1.253391981124878,-1000.1226196289062,-0.14893586933612823,0.260538250207901,0.027825085446238518
1669,1312,0.2167433500289917,1.253391981124878,-1000.1226196289062,-0.14893586933612823,0.260538250207901,0.027825085446238518
1668,1312,0.2167433500289917,1.253391981124878,-1000.1226196289062,-0.14893586933612823,0.260538250207901,0.027825085446238518
1697,1312,0.2167433500289917,1.253391981124878,-1000.1226196289062,-0.14893586933612823,0.260538250207901,0.027825085446238518
1611,1312,0.2167433500289917,1.253391981124878,-1000.1226196289062,-0.14893586933612823,0.260538250207901,0.027825085446238518
1600,1312,0.2167433500289917,1.253391981124878,-1000.1226196289062,-0.14893586933612823,0.260538250207901,0.027825085446238518
1599,1312,0.2167433500289917,1.253391981124878,-1000.1226196289062,-0.14893586933612823,0.260538250207901,0.027825085446238518
1628,1312,0.2167433500289917,1.253391981124878,-1000.1226196289062,-0.14893586933612823,0.260538250207901,0.027825085446238518
1697,1313,0.3458220958709717,1.5738500356674194,-1000.1219482421875,-0.0247166957706213,-0.22645065188407898,-0.11570112407207489
1668,1313,0.3458220958709717,1.5738500356674194,-1000.1219482421875,-0.0247166957706213,-0.22645065188407898,-0.11570112407207489
1677,1313,0.3458220958709717,1.5738500356674194,-1000.1219482421875,-0.0247166957706213,-0.22645065188407898,-0.11570112407207489
1682,1313,0.3458220958709717,1.5738500356674194,-1000.1219482421875,-0.0247166957706213,-0.22645065188407898,-0.11570112407207489
1628,1313,0.3458220958709717,1.5738500356674194,-1000.1219482421875,-0.0247166957706213,-0.22645065188407898,-0.11570112407207489
1599,1313,0.3458220958709717,1.5738500356674194,-1000.1219482421875,-0.0247166957706213,-0.22645065188407898,-0.11570112407207489
1608,1313,0.3458220958709717,1.5738500356674194,-1000.1219482421875,-0.0247166957706213,-0.22645065188407898,-0.11570112407207489
1613,1313,0.3458220958709717,1.5738500356674194,-1000.1219482421875,-0.0247166957706213,-0.22645065188407898,-0.11570112407207489
1678,1314,0.9776566624641418,0.9274727702140808,-999.9096069335938,-0.5097271203994751,0.17953172326087952,-0.20165342092514038
1698,1314,0.9776566624641418,0.9274727702140808,-999.9096069335938,-0.5097271203994751,0.17953172326087952,-0.20165342092514038
1681,1314,0.9776566624641418,0.9274727702140808,-999.9096069335938,-0.5097271203994751,0.17953172326087952,-0.20165342092514038
1671,1314,0.9776566624641418,0.9274727702140808,-999.9096069335938,-0.5097271203994751,0.17953172326087952,-0.20165342092514038
1609,1314,0.9776566624641418,0.9274727702140808,-999.9096069335938,-0.5097271203994751,0.17953172326087952,-0.20165342092514038
1629,1314,0.9776566624641418,0.9274727702140808,-999.9096069335938,-0.5097271203994751,0.17953172326087952,-0.20165342092514038
1612,1314,0.9776566624641418,0.9274727702140808,-999.9096069335938,-0.5097271203994751,0.17953172326087952,-0.20165342092514038
1602,1314,0.9776566624641418,0.9274727702140808,-999.9096069335938,-0.5097271203994751,0.17953172326087952,-0.20165342092514038
1669,1315,0.36016371846199036,1.7803630828857422,-999.8297729492188,-0.18769672513008118,-0.04304591938853264,-0.06556162983179092
1680,1315,0.36016371846199036,1.7803630828857422,-999.8297729492188,-0.18769672513008118,-0.04304591938853264,-0.06556162983179092
1679,1315,0.36016371846199036,1.7803630828857422,-999.8297729492188,-0.18769672513008118,-0.04304591938853264,-0.06556162983179092
1670,1315,0.36016371846199036,1.7803630828857422,-999.8297729492188,-0.18769672513008118,-0.04304591938853264,-0.06556162983179092
1600,1315,0.36016371846199036,1.7803630828857422,-999.8297729492188,-0.18769672513008118,-0.04304591938853264,-0.06556162983179092
1611,1315,0.36016371846199036,1.7803630828857422,-999.8297729492188,-0.18769672513008118,-0.04304591938853264,-0.06556162983179092
1610,1315,0.36016371846199036,1.7803630828857422,-999.8297729492188,-0.18769672513008118,-0.04304591938853264,-0.06556162983179092
1601,1315,0.36016371846199036,1.7803630828857422,-999.8297729492188,-0.18769672513008118,-0.04304591938853264,-0.06556162983179092
1708,1316,1.2094067335128784,1.1434463262557983,-999.804931640625,0.7890928983688354,-0.6677230000495911,-1.222325325012207
1721,1316,1.2094067335128784,1.1434463262557983,-999.804931640625,0.7890928983688354,-0.6677230000495911,-1.222325325012207
1700,1316,1.2094067335128784,1.1434463262557983,-999.804931640625,0.7890928983688354,-0.6677230000495911,-1.222325325012207
1711,1316,1.2094067335128784,1.1434463262557983,-999.804931640625,0.7890928983688354,-0.6677230000495911,-1.222325325012207
1639,1316,1.2094067335128784,1.1434463262557983,-999.804931640625,0.7890928983688354,-0.6677230000495911,-1.222325325012207
1652,1316,1.2094067335128784,1.1434463262557983,-999.804931640625,0.7890928983688354,-0.6677230000495911,-1.222325325012207
1631,1316,1.2094067335128784,1.1434463262557983,-999.804931640625,0.7890928983688354,-0.6677230000495911,-1.222325325012207
1642,1316,1.2094067335128784,1.1434463262557983,-999.804931640625,0.7890928983688354,-0.6677230000495911,-1.222325325012207
1724,1317,-2.036004066467285,-2.6836466789245605,-1000.876708984375,0.2327421009540558,-0.22692249715328217,-0.447822242975235
1702,1317,-2.036004066467285,-2.6836466789245605,-1000.876708984375,0.2327421009540558,-0.22692249715328217,-0.447822242975235
1688,1317,-2.036004066467285,-2.6836466789245605,-1000.876708984375,0.2327421009540558,-0.22692249715328217,-0.447822242975235
1689,1317,-2.036004066467285,-2.6836466789245605,-1000.876708984375,0.2327421009540558,-0.22692249715328217,-0.447822242975235
1655,1317,-2.036004066467285,-2.6836466789245605,-1000.876708984375,0.2327421009540558,-0.22692249715328217,-0.447822242975235
1633,1317,-2.036004066467285,-2.6836466789245605,-1000.876708984375,0.2327421009540558,-0.22692249715328217,-0.447822242975235
1619,1317,-2.036004066467285,-2.6836466789245605,-1000.876708984375,0.2327421009540558,-0.22692249715328217,-0.447822242975235
1620,1317,-2.036004066467285,-2.6836466789245605,-1000.876708984375,0.2327421009540558,-0.22692249715328217,-0.447822242975235
1712,1318,-1.3980827331542969,-1.8147083520889282,-1000.389404296875,0.5069448351860046,1.0239144563674927,0.38884788751602173
1709,1318,-1.3980827331542969,-1.8147083520889282,-1000.389404296875,0.5069448351860046,1.0239144563674927,0.38884788751602173
1708,1318,-1.3980827331542969,-1.8147083520889282,-1000.389404296875,0.5069448351860046,1.0239144563674927,0.38884788751602173
1711,1318,-1.3980827331542969,-1.8147083520889282,-1000.389404296875,0.5069448351860046,1.0239144563674927,0.38884788751602173
1643,1318,-1.3980827331542969,-1.8147083520889282,-1000.389404296875,0.5069448351860046,1.0239144563674927,0.38884788751602173
1640,1318,-1.3980827331542969,-1.8147083520889282,-1000.389404296875,0.5069448351860046,1.0239144563674927,0.38884788751602173
1639,1318,-1.3980827331542969,-1.8147083520889282,-1000.389404296875,0.5069448351860046,1.0239144563674927,0.38884788751602173
1642,1318,-1.3980827331542969,-1.8147083520889282,-1000.389404296875,0.5069448351860046,1.0239144563674927,0.38884788751602173
1703,1319,1.6454516649246216,2.880499839782715,-999.6102294921875,0.46829473972320557,-0.8488724231719971,0.2526926100254059
1720,1319,1.6454516649246216,2.880499839782715,-999.6102294921875,0.46829473972320557,-0.8488724231719971,0.2526926100254059
1708,1319,1.6454516649246216,2.880499839782715,-999.6102294921875,0.46829473972320557,-0.8488724231719971,0.2526926100254059
1709,1319,1.6454516649246216,2.880499839782715,-999.6102294921875,0.46829473972320557,-0.8488724231719971,0.2526926100254059
1634,1319,1.6454516649246216,2.880499839782715,-999.6102294921875,0.46829473972320557,-0.8488724231719971,0.2526926100254059
1651,1319,1.6454516649246216,2.880499839782715,-999.6102294921875,0.46829473972320557,-0.8488724231719971,0.2526926100254059
1639,1319,1.6454516649246216,2.880499839782715,-999.6102294921875,0.46829473972320557,-0.8488724231719971,0.2526926100254059
1640,1319,1.6454516649246216,2.880499839782715,-999.6102294921875,0.46829473972320557,-0.8488724231719971,0.2526926100254059
1683,1320,-1.396888017654419,-1.1186589002609253,-999.956298828125,-0.8336379528045654,-0.6357452869415283,0.8405706286430359
1696,1320,-1.396888017654419,-1.1186589002609253,-999.956298828125,-0.8336379528045654,-0.6357452869415283,0.8405706286430359
1721,1320,-1.396888017654419,-1.1186589002609253,-999.956298828125,-0.8336379528045654,-0.6357452869415283,0.8405706286430359
1708,1320,-1.396888017654419,-1.1186589002609253,-999.956298828125,-0.8336379528045654,-0.6357452869415283,0.8405706286430359
1614,1320,-1.396888017654419,-1.1186589002609253,-999.956298828125,-0.8336379528045654,-0.6357452869415283,0.8405706286430359
1627,1320,-1.396888017654419,-1.1186589002609253,-999.956298828125,-0.8336379528045654,-0.6357452869415283,0.8405706286430359
1652,1320,-1.396888017654419,-1.1186589002609253,-999.956298828125,-0.8336379528045654,-0.6357452869415283,0.8405706286430359
1639,1320,-1.396888017654419,-1.1186589002609253,-999.956298828125,-0.8336379528045654,-0.6357452869415283,0.8405706286430359
1723,1321,-4.259697914123535,-1.6114972829818726,-1001.416015625,-0.47505614161491394,0.21877610683441162,-0.7523770332336426
1707,1321,-4.259697914123535,-1.6114972829818726,-1001.416015625,-0.47505614161491394,0.21877610683441162,-0.7523770332336426
1687,1321,-4.259697914123535,-1.6114972829818726,-1001.416015625,-0.47505614161491394,0.21877610683441162,-0.7523770332336426
1695,1321,-4.259697914123535,-1.6114972829818726,-1001.416015625,-0.47505614161491394,0.21877610683441162,-0.7523770332336426
1654,1321,-4.259697914123535,-1.6114972829818726,-1001.416015625,-0.47505614161491394,0.21877610683441162,-0.7523770332336426
1638,1321,-4.259697914123535,-1.6114972829818726,-1001.416015625,-0.47505614161491394,0.21877610683441162,-0.7523770332336426
1618,1321,-4.259697914123535,-1.6114972829818726,-1001.416015625,-0.47505614161491394,0.21877610683441162,-0.7523770332336426
1626,1321,-4.259697914123535,-1.6114972829818726,-1001.416015625,-0.47505614161491394,0.21877610683441162,-0.7523770332336426
1717,1322,1.2623331546783447,1.4772793054580688,-998.9445190429688,0.655289888381958,1.6314961910247803,-1.5199631452560425
1712,1322,1.2623331546783447,1.4772793054580688,-998.9445190429688,0.655289888381958,1.6314961910247803,-1.5199631452560425
1691,1322,1.2623331546783447,1.4772793054580688,-998.9445190429688,0.655289888381958,1.6314961910247803,-1.5199631452560425
1705,1322,1.2623331546783447,1.4772793054580688,-998.9445190429688,0.655289888381958,1.6314961910247803,-1.5199631452560425
1648,1322,1.2623331546783447,1.4772793054580688,-998.9445190429688,0.655289888381958,1.6314961910247803,-1.5199631452560425
1643,1322,1.2623331546783447,1.4772793054580688,-998.9445190429688,0.655289888381958,1.6314961910247803,-1.5199631452560425
1622,1322,1.2623331546783447,1.4772793054580688,-998.9445190429688,0.655289888381958,1.6314961910247803,-1.5199631452560425
1636,1322,1.2623331546783447,1.4772793054580688,-998.9445190429688,0.655289888381958,1.6314961910247803,-1.5199631452560425
1691,1323,-0.9725305438041687,-0.37004637718200684,-999.6358032226562,-0.9397168755531311,0.11389493197202682,0.8983754515647888
1706,1323,-0.9725305438041687,-0.37004637718200684,-999.6358032226562,-0.9397168755531311,0.11389493197202682,0.8983754515647888
1714,1323,-0.9725305438041687,-0.37004637718200684,-999.6358032226562,-0.9397168755531311,0.11389493197202682,0.8983754515647888
1715,1323,-0.9725305438041687,-0.37004637718200684,-999.6358032226562,-0.9397168755531311,0.11389493197202682,0.8983754515647888
1622,1323,-0.9725305438041687,-0.37004637718200684,-999.6358032226562,-0.9397168755531311,0.11389493197202682,0.8983754515647888
1637,1323,-0.9725305438041687,-0.37004637718200684,-999.6358032226562,-0.9397168755531311,0.11389493197202682,0.8983754515647888
1645,1323,-0.9725305438041687,-0.37004637718200684,-999.6358032226562,-0.9397168755531311,0.11389493197202682,0.8983754515647888
1646,1323,-0.9725305438041687,-0.37004637718200684,-999.6358032226562,-0.9397168755531311,0.11389493197202682,0.8983754515647888
1698,1324,-0.7786630988121033,-0.7566618323326111,-998.11474609375,1.2540605068206787,-0.49228736758232117,0.22323904931545258
1679,1324,-0.7786630988121033,-0.7566618323326111,-998.11474609375,1.2540605068206787,-0.49228736758232117,0.22323904931545258
1718,1324,-0.7786630988121033,-0.7566618323326111,-998.11474609375,1.2540605068206787,-0.49228736758232117,0.22323904931545258
1701,1324,-0.7786630988121033,-0.7566618323326111,-998.11474609375,1.2540605068206787,-0.49228736758232117,0.22323904931545258
1629,1324,-0.7786630988121033,-0.7566618323326111,-998.11474609375,1.2540605068206787,-0.49228736758232117,0.22323904931545258
1610,1324,-0.7786630988121033,-0.7566618323326111,-998.11474609375,1.2540605068206787,-0.49228736758232117,0.22323904931545258
1649,1324,-0.7786630988121033,-0.7566618323326111,-998.11474609375,1.2540605068206787,-0.49228736758232117,0.22323904931545258
1632,1324,-0.7786630988121033,-0.7566618323326111,-998.11474609375,1.2540605068206787,-0.49228736758232117,0.22323904931545258
1725,1325,-1.98129403591156,-2.0461363792419434,-1001.8528442382812,0.6449877023696899,-0.6208718419075012,-0.2718951106071472
1681,1325,-1.98129403591156,-2.0461363792419434,-1001.8528442382812,0.6449877023696899,-0.6208718419075012,-0.2718951106071472
1698,1325,-1.98129403591156,-2.0461363792419434,-1001.8528442382812,0.6449877023696899,-0.6208718419075012,-0.2718951106071472
1701,1325,-1.98129403591156,-2.0461363792419434,-1001.8528442382812,0.6449877023696899,-0.6208718419075012,-0.2718951106071472
1656,1325,-1.98129403591156,-2.0461363792419434,-1001.8528442382812,0.6449877023696899,-0.6208718419075012,-0.2718951106071472
1612,1325,-1.98129403591156,-2.0461363792419434,-1001.8528442382812,0.6449877023696899,-0.6208718419075012,-0.2718951106071472
1629,1325,-1.98129403591156,-2.0461363792419434,-1001.8528442382812,0.6449877023696899,-0.6208718419075012,-0.2718951106071472
1632,1325,-1.98129403591156,-2.0461363792419434,-1001.8528442382812,0.6449877023696899,-0.6208718419075012,-0.2718951106071472
1685,1326,-2.62739896774292,-0.9554057717323303,-1000.90576171875,-0.49767258763313293,0.20350730419158936,1.0641045570373535
1686,1326,-2.62739896774292,-0.9554057717323303,-1000.90576171875,-0.49767258763313293,0.20350730419158936,1.0641045570373535
1722,1326,-2.62739896774292,-0.9554057717323303,-1000.90576171875,-0.49767258763313293,0.20350730419158936,1.0641045570373535
1700,1326,-2.62739896774292,-0.9554057717323303,-1000.90576171875,-0.49767258763313293,0.20350730419158936,1.0641045570373535
1616,1326,-2.62739896774292,-0.9554057717323303,-1000.90576171875,-0.49767258763313293,0.20350730419158936,1.0641045570373535
1617,1326,-2.62739896774292,-0.9554057717323303,-1000.90576171875,-0.49767258763313293,0.20350730419158936,1.0641045570373535
1653,1326,-2.62739896774292,-0.9554057717323303,-1000.90576171875,-0.49767258763313293,0.20350730419158936,1.0641045570373535
1631,1326,-2.62739896774292,-0.9554057717323303,-1000.90576171875,-0.49767258763313293,0.20350730419158936,1.0641045570373535
1670,1327,0.6409182548522949,1.177728533744812,-1000.1821899414062,-0.8090401887893677,0.08001290261745453,0.139146089553833
1679,1327,0.6409182548522949,1.177728533744812,-1000.1821899414062,-0.8090401887893677,0.08001290261745453,0.139146089553833
1698,1327,0.6409182548522949,1.177728533744812,-1000.1821899414062,-0.8090401887893677,0.08001290261745453,0.139146089553833
1678,1327,0.6409182548522949,1.177728533744812,-1000.1821899414062,-0.8090401887893677,0.08001290261745453,0.139146089553833
1601,1327,0.6409182548522949,1.177728533744812,-1000.1821899414062,-0.8090401887893677,0.08001290261745453,0.139146089553833
1610,1327,0.6409182548522949,1.177728533744812,-1000.1821899414062,-0.8090401887893677,0.08001290261745453,0.139146089553833
1629,1327,0.6409182548522949,1.177728533744812,-1000.1821899414062,-0.8090401887893677,0.08001290261745453,0.139146089553833
1609,1327,0.6409182548522949,1.177728533744812,-1000.1821899414062,-0.8090401887893677,0.08001290261745453,0.139146089553833
1667,1328,0.55685955286026,2.534011125564575,-999.87890625,-0.1059531643986702,0.09136924892663956,0.0465257465839386
1713,1328,0.55685955286026,2.534011125564575,-999.87890625,-0.1059531643986702,0.09136924892663956,0.0465257465839386
1682,1328,0.55685955286026,2.534011125564575,-999.87890625,-0.1059531643986702,0.09136924892663956,0.0465257465839386
1677,1328,0.55685955286026,2.534011125564575,-999.87890625,-0.1059531643986702,0.09136924892663956,0.0465257465839386
1598,1328,0.55685955286026,2.534011125564575,-999.87890625,-0.1059531643986702,0.09136924892663956,0.0465257465839386
1644,1328,0.55685955286026,2.534011125564575,-999.87890625,-0.1059531643986702,0.09136924892663956,0.0465257465839386
1613,1328,0.55685955286026,2.534011125564575,-999.87890625,-0.1059531643986702,0.09136924892663956,0.0465257465839386
1608,1328,0.55685955286026,2.534011125564575,-999.87890625,-0.1059531643986702,0.09136924892663956,0.0465257465839386
1683,1329,1.1500569581985474,0.4555637240409851,-1000.0718994140625,0.47519367933273315,0.1295255422592163,-0.24629779160022736
1666,1329,1.1500569581985474,0.4555637240409851,-1000.0718994140625,0.47519367933273315,0.1295255422592163,-0.24629779160022736
1676,1329,1.1500569581985474,0.4555637240409851,-1000.0718994140625,0.47519367933273315,0.1295255422592163,-0.24629779160022736
1696,1329,1.1500569581985474,0.4555637240409851,-1000.0718994140625,0.47519367933273315,0.1295255422592163,-0.24629779160022736
1614,1329,1.1500569581985474,0.4555637240409851,-1000.0718994140625,0.47519367933273315,0.1295255422592163,-0.24629779160022736
1597,1329,1.1500569581985474,0.4555637240409851,-1000.0718994140625,0.47519367933273315,0.1295255422592163,-0.24629779160022736
1607,1329,1.1500569581985474,0.4555637240409851,-1000.0718994140625,0.47519367933273315,0.1295255422592163,-0.24629779160022736
1627,1329,1.1500569581985474,0.4555637240409851,-1000.0718994140625,0.47519367933273315,0.1295255422592163,-0.24629779160022736
1684,1330,1.933579444885254,0.28397583961486816,-1000.2353515625,-0.16820649802684784,0.1614479422569275,0.07706702500581741
1672,1330,1.933579444885254,0.28397583961486816,-1000.2353515625,-0.16820649802684784,0.1614479422569275,0.07706702500581741
1671,1330,1.933579444885254,0.28397583961486816,-1000.2353515625,-0.16820649802684784,0.1614479422569275,0.07706702500581741
1681,1330,1.933579444885254,0.28397583961486816,-1000.2353515625,-0.16820649802684784,0.1614479422569275,0.07706702500581741
1615,1330,1.933579444885254,0.28397583961486816,-1000.2353515625,-0.16820649802684784,0.1614479422569275,0.07706702500581741
1603,1330,1.933579444885254,0.28397583961486816,-1000.2353515625,-0.16820649802684784,0.1614479422569275,0.07706702500581741
1602,1330,1.933579444885254,0.28397583961486816,-1000.2353515625,-0.16820649802684784,0.1614479422569275,0.07706702500581741
1612,1330,1.933579444885254,0.28397583961486816,-1000.2353515625,-0.16820649802684784,0.1614479422569275,0.07706702500581741
1696,1331,1.3569202423095703,0.02231736108660698,-1000.07421875,0.04501098021864891,-0.20056255161762238,0.1033005341887474
1676,1331,1.3569202423095703,0.02231736108660698,-1000.07421875,0.04501098021864891,-0.20056255161762238,0.1033005341887474
1665,1331,1.3569202423095703,0.02231736108660698,-1000.07421875,0.04501098021864891,-0.20056255161762238,0.1033005341887474
1685,1331,1.3569202423095703,0.02231736108660698,-1000.07421875,0.04501098021864891,-0.20056255161762238,0.1033005341887474
1627,1331,1.3569202423095703,0.02231736108660698,-1000.07421875,0.04501098021864891,-0.20056255161762238,0.1033005341887474
1607,1331,1.3569202423095703,0.02231736108660698,-1000.07421875,0.04501098021864891,-0.20056255161762238,0.1033005341887474
1596,1331,1.3569202423095703,0.02231736108660698,-1000.07421875,0.04501098021864891,-0.20056255161762238,0.1033005341887474
1616,1331,1.3569202423095703,0.02231736108660698,-1000.07421875,0.04501098021864891,-0.20056255161762238,0.1033005341887474
1720,1332,-0.5116350054740906,-1.374050259590149,-999.9566040039062,-1.080876350402832,0.7151938080787659,-0.28137707710266113
1713,1332,-0.5116350054740906,-1.374050259590149,-999.9566040039062,-1.080876350402832,0.7151938080787659,-0.28137707710266113
1683,1332,-0.5116350054740906,-1.374050259590149,-999.9566040039062,-1.080876350402832,0.7151938080787659,-0.28137707710266113
1708,1332,-0.5116350054740906,-1.374050259590149,-999.9566040039062,-1.080876350402832,0.7151938080787659,-0.28137707710266113
1651,1332,-0.5116350054740906,-1.374050259590149,-999.9566040039062,-1.080876350402832,0.7151938080787659,-0.28137707710266113
1644,1332,-0.5116350054740906,-1.374050259590149,-999.9566040039062,-1.080876350402832,0.7151938080787659,-0.28137707710266113
1614,1332,-0.5116350054740906,-1.374050259590149,-999.9566040039062,-1.080876350402832,0.7151938080787659,-0.28137707710266113
1639,1332,-0.5116350054740906,-1.374050259590149,-999.9566040039062,-1.080876350402832,0.7151938080787659,-0.28137707710266113
1685,1333,0.965058445930481,0.20043611526489258,-1000.0079956054688,-0.04725899174809456,-0.14204275608062744,-0.3579026460647583
1665,1333,0.965058445930481,0.20043611526489258,-1000.0079956054688,-0.04725899174809456,-0.14204275608062744,-0.3579026460647583
1664,1333,0.965058445930481,0.20043611526489258,-1000.0079956054688,-0.04725899174809456,-0.14204275608062744,-0.3579026460647583
1686,1333,0.965058445930481,0.20043611526489258,-1000.0079956054688,-0.04725899174809456,-0.14204275608062744,-0.3579026460647583
1616,1333,0.965058445930481,0.20043611526489258,-1000.0079956054688,-0.04725899174809456,-0.14204275608062744,-0.3579026460647583
1596,1333,0.965058445930481,0.20043611526489258,-1000.0079956054688,-0.04725899174809456,-0.14204275608062744,-0.3579026460647583
1595,1333,0.965058445930481,0.20043611526489258,-1000.0079956054688,-0.04725899174809456,-0.14204275608062744,-0.3579026460647583
1617,1333,0.965058445930481,0.20043611526489258,-1000.0079956054688,-0.04725899174809456,-0.14204275608062744,-0.3579026460647583
1686,1334,1.3105137348175049,0.14801660180091858,-1000.2091674804688,-0.021651538088917732,-0.08316829055547714,0.3376239240169525
1664,1334,1.3105137348175049,0.14801660180091858,-1000.2091674804688,-0.021651538088917732,-0.08316829055547714,0.3376239240169525
1663,1334,1.3105137348175049,0.14801660180091858,-1000.2091674804688,-0.021651538088917732,-0.08316829055547714,0.3376239240169525
1687,1334,1.3105137348175049,0.14801660180091858,-1000.2091674804688,-0.021651538088917732,-0.08316829055547714,0.3376239240169525
1617,1334,1.3105137348175049,0.14801660180091858,-1000.2091674804688,-0.021651538088917732,-0.08316829055547714,0.3376239240169525
1595,1334,1.3105137348175049,0.14801660180091858,-1000.2091674804688,-0.021651538088917732,-0.08316829055547714,0.3376239240169525
1594,1334,1.3105137348175049,0.14801660180091858,-1000.2091674804688,-0.021651538088917732,-0.08316829055547714,0.3376239240169525
1618,1334,1.3105137348175049,0.14801660180091858,-1000.2091674804688,-0.021651538088917732,-0.08316829055547714,0.3376239240169525
1717,1335,-0.32680976390838623,1.3248636722564697,-1001.0554809570312,0.704067587852478,0.03937539830803871,1.6896389722824097
1705,1335,-0.32680976390838623,1.3248636722564697,-1001.0554809570312,0.704067587852478,0.03937539830803871,1.6896389722824097
1716,1335,-0.32680976390838623,1.3248636722564697,-1001.0554809570312,0.704067587852478,0.03937539830803871,1.6896389722824097
1710,1335,-0.32680976390838623,1.3248636722564697,-1001.0554809570312,0.704067587852478,0.03937539830803871,1.6896389722824097
1648,1335,-0.32680976390838623,1.3248636722564697,-1001.0554809570312,0.704067587852478,0.03937539830803871,1.6896389722824097
1636,1335,-0.32680976390838623,1.3248636722564697,-1001.0554809570312,0.704067587852478,0.03937539830803871,1.6896389722824097
1647,1335,-0.32680976390838623,1.3248636722564697,-1001.0554809570312,0.704067587852478,0.03937539830803871,1.6896389722824097
1641,1335,-0.32680976390838623,1.3248636722564697,-1001.0554809570312,0.704067587852478,0.03937539830803871,1.6896389722824097
1672,1336,1.8941247463226318,0.8375253677368164,-999.8982543945312,0.49723735451698303,0.056223124265670776,-0.15939338505268097
1684,1336,1.8941247463226318,0.8375253677368164,-999.8982543945312,0.49723735451698303,0.056223124265670776,-0.15939338505268097
1692,1336,1.8941247463226318,0.8375253677368164,-999.8982543945312,0.49723735451698303,0.056223124265670776,-0.15939338505268097
1657,1336,1.8941247463226318,0.8375253677368164,-999.8982543945312,0.49723735451698303,0.056223124265670776,-0.15939338505268097
1603,1336,1.8941247463226318,0.8375253677368164,-999.8982543945312,0.49723735451698303,0.056223124265670776,-0.15939338505268097
1615,1336,1.8941247463226318,0.8375253677368164,-999.8982543945312,0.49723735451698303,0.056223124265670776,-0.15939338505268097
1623,1336,1.8941247463226318,0.8375253677368164,-999.8982543945312,0.49723735451698303,0.056223124265670776,-0.15939338505268097
1588,1336,1.8941247463226318,0.8375253677368164,-999.8982543945312,0.49723735451698303,0.056223124265670776,-0.15939338505268097
1687,1337,1.8923283815383911,0.32264286279678345,-999.8453979492188,0.006054038647562265,-0.17636710405349731,-0.11887816339731216
1663,1337,1.8923283815383911,0.32264286279678345,-999.8453979492188,0.006054038647562265,-0.17636710405349731,-0.11887816339731216
1675,1337,1.8923283815383911,0.32264286279678345,-999.8453979492188,0.006054038647562265,-0.17636710405349731,-0.11887816339731216
1695,1337,1.8923283815383911,0.32264286279678345,-999.8453979492188,0.006054038647562265,-0.17636710405349731,-0.11887816339731216
1618,1337,1.8923283815383911,0.32264286279678345,-999.8453979492188,0.006054038647562265,-0.17636710405349731,-0.11887816339731216
1594,1337,1.8923283815383911,0.32264286279678345,-999.8453979492188,0.006054038647562265,-0.17636710405349731,-0.11887816339731216
1606,1337,1.8923283815383911,0.32264286279678345,-999.8453979492188,0.006054038647562265,-0.17636710405349731,-0.11887816339731216
1626,1337,1.8923283815383911,0.32264286279678345,-999.8453979492188,0.006054038647562265,-0.17636710405349731,-0.11887816339731216
1695,1338,1.236680269241333,0.29747676849365234,-1000.32275390625,-0.6614763140678406,0.04440784454345703,0.30300331115722656
1675,1338,1.236680269241333,0.29747676849365234,-1000.32275390625,-0.6614763140678406,0.04440784454345703,0.30300331115722656
1662,1338,1.236680269241333,0.29747676849365234,-1000.32275390625,-0.6614763140678406,0.04440784454345703,0.30300331115722656
1688,1338,1.236680269241333,0.29747676849365234,-1000.32275390625,-0.6614763140678406,0.04440784454345703,0.30300331115722656
1626,1338,1.236680269241333,0.29747676849365234,-1000.32275390625,-0.6614763140678406,0.04440784454345703,0.30300331115722656
1606,1338,1.236680269241333,0.29747676849365234,-1000.32275390625,-0.6614763140678406,0.04440784454345703,0.30300331115722656
1593,1338,1.236680269241333,0.29747676849365234,-1000.32275390625,-0.6614763140678406,0.04440784454345703,0.30300331115722656
1619,1338,1.236680269241333,0.29747676849365234,-1000.32275390625,-0.6614763140678406,0.04440784454345703,0.30300331115722656
1688,1339,1.0471917390823364,1.4635192155838013,-999.8079223632812,-0.6188704967498779,-0.08088123798370361,-0.13769645988941193
1662,1339,1.0471917390823364,1.4635192155838013,-999.8079223632812,-0.6188704967498779,-0.08088123798370361,-0.13769645988941193
1661,1339,1.0471917390823364,1.4635192155838013,-999.8079223632812,-0.6188704967498779,-0.08088123798370361,-0.13769645988941193
1689,1339,1.0471917390823364,1.4635192155838013,-999.8079223632812,-0.6188704967498779,-0.08088123798370361,-0.13769645988941193
1619,1339,1.0471917390823364,1.4635192155838013,-999.8079223632812,-0.6188704967498779,-0.08088123798370361,-0.13769645988941193
1593,1339,1.0471917390823364,1.4635192155838013,-999.8079223632812,-0.6188704967498779,-0.08088123798370361,-0.13769645988941193
1592,1339,1.0471917390823364,1.4635192155838013,-999.8079223632812,-0.6188704967498779,-0.08088123798370361,-0.13769645988941193
1620,1339,1.0471917390823364,1.4635192155838013,-999.8079223632812,-0.6188704967498779,-0.08088123798370361,-0.13769645988941193
1689,1340,0.38423386216163635,1.6704775094985962,-1000.266845703125,-0.23953478038311005,-0.010743841528892517,0.15603148937225342
1661,1340,0.38423386216163635,1.6704775094985962,-1000.266845703125,-0.23953478038311005,-0.010743841528892517,0.15603148937225342
1674,1340,0.38423386216163635,1.6704775094985962,-1000.266845703125,-0.23953478038311005,-0.010743841528892517,0.15603148937225342
1694,1340,0.38423386216163635,1.6704775094985962,-1000.266845703125,-0.23953478038311005,-0.010743841528892517,0.15603148937225342
1620,1340,0.38423386216163635,1.6704775094985962,-1000.266845703125,-0.23953478038311005,-0.010743841528892517,0.15603148937225342
1592,1340,0.38423386216163635,1.6704775094985962,-1000.266845703125,-0.23953478038311005,-0.010743841528892517,0.15603148937225342
1605,1340,0.38423386216163635,1.6704775094985962,-1000.266845703125,-0.23953478038311005,-0.010743841528892517,0.15603148937225342
1625,1340,0.38423386216163635,1.6704775094985962,-1000.266845703125,-0.23953478038311005,-0.010743841528892517,0.15603148937225342
1694,1341,0.568458080291748,1.9684985876083374,-999.8311157226562,-0.08054695278406143,-0.17159894108772278,0.30168765783309937
1674,1341,0.568458080291748,1.9684985876083374,-999.8311157226562,-0.08054695278406143,-0.17159894108772278,0.30168765783309937
1660,1341,0.568458080291748,1.9684985876083374,-999.8311157226562,-0.08054695278406143,-0.17159894108772278,0.30168765783309937
1690,1341,0.568458080291748,1.9684985876083374,-999.8311157226562,-0.08054695278406143,-0.17159894108772278,0.30168765783309937
1625,1341,0.568458080291748,1.9684985876083374,-999.8311157226562,-0.08054695278406143,-0.17159894108772278,0.30168765783309937
1605,1341,0.568458080291748,1.9684985876083374,-999.8311157226562,-0.08054695278406143,-0.17159894108772278,0.30168765783309937
1591,1341,0.568458080291748,1.9684985876083374,-999.8311157226562,-0.08054695278406143,-0.17159894108772278,0.30168765783309937
1621,1341,0.568458080291748,1.9684985876083374,-999.8311157226562,-0.08054695278406143,-0.17159894108772278,0.30168765783309937
1714,1342,1.181532382965088,1.5685527324676514,-999.8592529296875,0.6006326079368591,-0.18586811423301697,-0.046330127865076065
1659,1342,1.181532382965088,1.5685527324676514,-999.8592529296875,0.6006326079368591,-0.18586811423301697,-0.046330127865076065
1658,1342,1.181532382965088,1.5685527324676514,-999.8592529296875,0.6006326079368591,-0.18586811423301697,-0.046330127865076065
1715,1342,1.181532382965088,1.5685527324676514,-999.8592529296875,0.6006326079368591,-0.18586811423301697,-0.046330127865076065
1645,1342,1.181532382965088,1.5685527324676514,-999.8592529296875,0.6006326079368591,-0.18586811423301697,-0.046330127865076065
1590,1342,1.181532382965088,1.5685527324676514,-999.8592529296875,0.6006326079368591,-0.18586811423301697,-0.046330127865076065
1589,1342,1.181532382965088,1.5685527324676514,-999.8592529296875,0.6006326079368591,-0.18586811423301697,-0.046330127865076065
1646,1342,1.181532382965088,1.5685527324676514,-999.8592529296875,0.6006326079368591,-0.18586811423301697,-0.046330127865076065
1693,1343,0.7607633471488953,0.6107874512672424,-1000.1687622070312,0.5107038021087646,0.1858605146408081,0.1412561982870102
1673,1343,0.7607633471488953,0.6107874512672424,-1000.1687622070312,0.5107038021087646,0.1858605146408081,0.1412561982870102
1657,1343,0.7607633471488953,0.6107874512672424,-1000.1687622070312,0.5107038021087646,0.1858605146408081,0.1412561982870102
1692,1343,0.7607633471488953,0.6107874512672424,-1000.1687622070312,0.5107038021087646,0.1858605146408081,0.1412561982870102
1624,1343,0.7607633471488953,0.6107874512672424,-1000.1687622070312,0.5107038021087646,0.1858605146408081,0.1412561982870102
1604,1343,0.7607633471488953,0.6107874512672424,-1000.1687622070312,0.5107038021087646,0.1858605146408081,0.1412561982870102
1588,1343,0.7607633471488953,0.6107874512672424,-1000.1687622070312,0.5107038021087646,0.1858605146408081,0.1412561982870102
1623,1343,0.7607633471488953,0.6107874512672424,-1000.1687622070312,0.5107038021087646,0.1858605146408081,0.1412561982870102
1716,1344,-3.7236945629119873,-3.0831491947174072,-1002.1159057617188,-0.7652837038040161,-0.13882377743721008,-0.8688179850578308
1692,1344,-3.7236945629119873,-3.0831491947174072,-1002.1159057617188,-0.7652837038040161,-0.13882377743721008,-0.8688179850578308
1684,1344,-3.7236945629119873,-3.0831491947174072,-1002.1159057617188,-0.7652837038040161,-0.13882377743721008,-0.8688179850578308
1699,1344,-3.7236945629119873,-3.0831491947174072,-1002.1159057617188,-0.7652837038040161,-0.13882377743721008,-0.8688179850578308
1647,1344,-3.7236945629119873,-3.0831491947174072,-1002.1159057617188,-0.7652837038040161,-0.13882377743721008,-0.8688179850578308
1623,1344,-3.7236945629119873,-3.0831491947174072,-1002.1159057617188,-0.7652837038040161,-0.13882377743721008,-0.8688179850578308
1615,1344,-3.7236945629119873,-3.0831491947174072,-1002.1159057617188,-0.7652837038040161,-0.13882377743721008,-0.8688179850578308
1630,1344,-3.7236945629119873,-3.0831491947174072,-1002.1159057617188,-0.7652837038040161,-0.13882377743721008,-0.8688179850578308
1715,1345,-1.9116559028625488,-3.0808913707733154,-1001.087890625,-0.4203481078147888,-0.030027491971850395,-0.6342530250549316
1693,1345,-1.9116559028625488,-3.0808913707733154,-1001.087890625,-0.4203481078147888,-0.030027491971850395,-0.6342530250549316
1705,1345,-1.9116559028625488,-3.0808913707733154,-1001.087890625,-0.4203481078147888,-0.030027491971850395,-0.6342530250549316
1691,1345,-1.9116559028625488,-3.0808913707733154,-1001.087890625,-0.4203481078147888,-0.030027491971850395,-0.6342530250549316
1646,1345,-1.9116559028625488,-3.0808913707733154,-1001.087890625,-0.4203481078147888,-0.030027491971850395,-0.6342530250549316
1624,1345,-1.9116559028625488,-3.0808913707733154,-1001.087890625,-0.4203481078147888,-0.030027491971850395,-0.6342530250549316
1636,1345,-1.9116559028625488,-3.0808913707733154,-1001.087890625,-0.4203481078147888,-0.030027491971850395,-0.6342530250549316
1622,1345,-1.9116559028625488,-3.0808913707733154,-1001.087890625,-0.4203481078147888,-0.030027491971850395,-0.6342530250549316
1690,1346,0.37299567461013794,1.3456465005874634,-1000.2026977539062,0.5236441493034363,0.1852702796459198,0.17841742932796478
1660,1346,0.37299567461013794,1.3456465005874634,-1000.2026977539062,0.5236441493034363,0.1852702796459198,0.17841742932796478
1659,1346,0.37299567461013794,1.3456465005874634,-1000.2026977539062,0.5236441493034363,0.1852702796459198,0.17841742932796478
1714,1346,0.37299567461013794,1.3456465005874634,-1000.2026977539062,0.5236441493034363,0.1852702796459198,0.17841742932796478
1621,1346,0.37299567461013794,1.3456465005874634,-1000.2026977539062,0.5236441493034363,0.1852702796459198,0.17841742932796478
1591,1346,0.37299567461013794,1.3456465005874634,-1000.2026977539062,0.5236441493034363,0.1852702796459198,0.17841742932796478
1590,1346,0.37299567461013794,1.3456465005874634,-1000.2026977539062,0.5236441493034363,0.1852702796459198,0.17841742932796478
1645,1346,0.37299567461013794,1.3456465005874634,-1000.2026977539062,0.5236441493034363,0.1852702796459198,0.17841742932796478
1699,1347,-1.566703200340271,0.876148521900177,-997.7085571289062,0.32889479398727417,-1.146492838859558,1.275712251663208
1684,1347,-1.566703200340271,0.876148521900177,-997.7085571289062,0.32889479398727417,-1.146492838859558,1.275712251663208
1681,1347,-1.566703200340271,0.876148521900177,-997.7085571289062,0.32889479398727417,-1.146492838859558,1.275712251663208
1725,1347,-1.566703200340271,0.876148521900177,-997.7085571289062,0.32889479398727417,-1.146492838859558,1.275712251663208
1630,1347,-1.566703200340271,0.876148521900177,-997.7085571289062,0.32889479398727417,-1.146492838859558,1.275712251663208
1615,1347,-1.566703200340271,0.876148521900177,-997.7085571289062,0.32889479398727417,-1.146492838859558,1.275712251663208
1612,1347,-1.566703200340271,0.876148521900177,-997.7085571289062,0.32889479398727417,-1.146492838859558,1.275712251663208
1656,1347,-1.566703200340271,0.876148521900177,-997.7085571289062,0.32889479398727417,-1.146492838859558,1.275712251663208
1710,1348,0.2451382577419281,-0.42945027351379395,-1000.2429809570312,-1.1230649948120117,0.16285403072834015,0.1420987993478775
1725,1348,0.2451382577419281,-0.42945027351379395,-1000.2429809570312,-1.1230649948120117,0.16285403072834015,0.1420987993478775
1701,1348,0.2451382577419281,-0.42945027351379395,-1000.2429809570312,-1.1230649948120117,0.16285403072834015,0.1420987993478775
1709,1348,0.2451382577419281,-0.42945027351379395,-1000.2429809570312,-1.1230649948120117,0.16285403072834015,0.1420987993478775
1641,1348,0.2451382577419281,-0.42945027351379395,-1000.2429809570312,-1.1230649948120117,0.16285403072834015,0.1420987993478775
1656,1348,0.2451382577419281,-0.42945027351379395,-1000.2429809570312,-1.1230649948120117,0.16285403072834015,0.1420987993478775
1632,1348,0.2451382577419281,-0.42945027351379395,-1000.2429809570312,-1.1230649948120117,0.16285403072834015,0.1420987993478775
1640,1348,0.2451382577419281,-0.42945027351379395,-1000.2429809570312,-1.1230649948120117,0.16285403072834015,0.1420987993478775
1680,1349,-0.5665189623832703,-2.105389356613159,-998.8002319335938,0.4362632930278778,-1.0789309740066528,0.5119115114212036
1697,1349,-0.5665189623832703,-2.105389356613159,-998.8002319335938,0.4362632930278778,-1.0789309740066528,0.5119115114212036
1719,1349,-0.5665189623832703,-2.105389356613159,-998.8002319335938,0.4362632930278778,-1.0789309740066528,0.5119115114212036
1704,1349,-0.5665189623832703,-2.105389356613159,-998.8002319335938,0.4362632930278778,-1.0789309740066528,0.5119115114212036
1611,1349,-0.5665189623832703,-2.105389356613159,-998.8002319335938,0.4362632930278778,-1.0789309740066528,0.5119115114212036
1628,1349,-0.5665189623832703,-2.105389356613159,-998.8002319335938,0.4362632930278778,-1.0789309740066528,0.5119115114212036
1650,1349,-0.5665189623832703,-2.105389356613159,-998.8002319335938,0.4362632930278778,-1.0789309740066528,0.5119115114212036
1635,1349,-0.5665189623832703,-2.105389356613159,-998.8002319335938,0.4362632930278778,-1.0789309740066528,0.5119115114212036
1704,1350,-0.7121464014053345,3.1912453174591064,-999.9929809570312,-0.09818597137928009,0.22860972583293915,-1.1491526365280151
1719,1350,-0.7121464014053345,3.1912453174591064,-999.9929809570312,-0.09818597137928009,0.22860972583293915,-1.1491526365280151
1703,1350,-0.7121464014053345,3.1912453174591064,-999.9929809570312,-0.09818597137928009,0.22860972583293915,-1.1491526365280151
1709,1350,-0.7121464014053345,3.1912453174591064,-999.9929809570312,-0.09818597137928009,0.22860972583293915,-1.1491526365280151
1635,1350,-0.7121464014053345,3.1912453174591064,-999.9929809570312,-0.09818597137928009,0.22860972583293915,-1.1491526365280151
1650,1350,-0.7121464014053345,3.1912453174591064,-999.9929809570312,-0.09818597137928009,0.22860972583293915,-1.1491526365280151
1634,1350,-0.7121464014053345,3.1912453174591064,-999.9929809570312,-0.09818597137928009,0.22860972583293915,-1.1491526365280151
1640,1350,-0.7121464014053345,3.1912453174591064,-999.9929809570312,-0.09818597137928009,0.22860972583293915,-1.1491526365280151
1706,1351,-1.2501236200332642,-3.1392319202423096,-1000.5387573242188,-0.352570503950119,-0.015106833539903164,-1.5278483629226685
1694,1351,-1.2501236200332642,-3.1392319202423096,-1000.5387573242188,-0.352570503950119,-0.015106833539903164,-1.5278483629226685
1690,1351,-1.2501236200332642,-3.1392319202423096,-1000.5387573242188,-0.352570503950119,-0.015106833539903164,-1.5278483629226685
1714,1351,-1.2501236200332642,-3.1392319202423096,-1000.5387573242188,-0.352570503950119,-0.015106833539903164,-1.5278483629226685
1637,1351,-1.2501236200332642,-3.1392319202423096,-1000.5387573242188,-0.352570503950119,-0.015106833539903164,-1.5278483629226685
1625,1351,-1.2501236200332642,-3.1392319202423096,-1000.5387573242188,-0.352570503950119,-0.015106833539903164,-1.5278483629226685
1621,1351,-1.2501236200332642,-3.1392319202423096,-1000.5387573242188,-0.352570503950119,-0.015106833539903164,-1.5278483629226685
1645,1351,-1.2501236200332642,-3.1392319202423096,-1000.5387573242188,-0.352570503950119,-0.015106833539903164,-1.5278483629226685
1704,1352,2.070622682571411,2.480466842651367,-999.162109375,-0.7777580618858337,1.081895112991333,0.20008732378482819
1709,1352,2.070622682571411,2.480466842651367,-999.162109375,-0.7777580618858337,1.081895112991333,0.20008732378482819
1701,1352,2.070622682571411,2.480466842651367,-999.162109375,-0.7777580618858337,1.081895112991333,0.20008732378482819
1718,1352,2.070622682571411,2.480466842651367,-999.162109375,-0.7777580618858337,1.081895112991333,0.20008732378482819
1635,1352,2.070622682571411,2.480466842651367,-999.162109375,-0.7777580618858337,1.081895112991333,0.20008732378482819
1640,1352,2.070622682571411,2.480466842651367,-999.162109375,-0.7777580618858337,1.081895112991333,0.20008732378482819
1632,1352,2.070622682571411,2.480466842651367,-999.162109375,-0.7777580618858337,1.081895112991333,0.20008732378482819
1649,1352,2.070622682571411,2.480466842651367,-999.162109375,-0.7777580618858337,1.081895112991333,0.20008732378482819
1682,1353,-1.0868092775344849,-3.441981792449951,-1000.15869140625,0.3056055009365082,-0.27248331904411316,0.0777495950460434
1713,1353,-1.0868092775344849,-3.441981792449951,-1000.15869140625,0.3056055009365082,-0.27248331904411316,0.0777495950460434
1720,1353,-1.0868092775344849,-3.441981792449951,-1000.15869140625,0.3056055009365082,-0.27248331904411316,0.0777495950460434
1703,1353,-1.0868092775344849,-3.441981792449951,-1000.15869140625,0.3056055009365082,-0.27248331904411316,0.0777495950460434
1613,1353,-1.0868092775344849,-3.441981792449951,-1000.15869140625,0.3056055009365082,-0.27248331904411316,0.0777495950460434
1644,1353,-1.0868092775344849,-3.441981792449951,-1000.15869140625,0.3056055009365082,-0.27248331904411316,0.0777495950460434
1651,1353,-1.0868092775344849,-3.441981792449951,-1000.15869140625,0.3056055009365082,-0.27248331904411316,0.0777495950460434
1634,1353,-1.0868092775344849,-3.441981792449951,-1000.15869140625,0.3056055009365082,-0.27248331904411316,0.0777495950460434
1724,1354,1.5523432493209839,2.2139413356781006,-1000.2354736328125,0.2733692228794098,-1.0082286596298218,0.6661469340324402
1706,1354,1.5523432493209839,2.2139413356781006,-1000.2354736328125,0.2733692228794098,-1.0082286596298218,0.6661469340324402
1691,1354,1.5523432493209839,2.2139413356781006,-1000.2354736328125,0.2733692228794098,-1.0082286596298218,0.6661469340324402
1712,1354,1.5523432493209839,2.2139413356781006,-1000.2354736328125,0.2733692228794098,-1.0082286596298218,0.6661469340324402
1655,1354,1.5523432493209839,2.2139413356781006,-1000.2354736328125,0.2733692228794098,-1.0082286596298218,0.6661469340324402
1637,1354,1.5523432493209839,2.2139413356781006,-1000.2354736328125,0.2733692228794098,-1.0082286596298218,0.6661469340324402
1622,1354,1.5523432493209839,2.2139413356781006,-1000.2354736328125,0.2733692228794098,-1.0082286596298218,0.6661469340324402
1643,1354,1.5523432493209839,2.2139413356781006,-1000.2354736328125,0.2733692228794098,-1.0082286596298218,0.6661469340324402
1700,1355,4.010126113891602,-0.5344974994659424,-999.443115234375,0.25273948907852173,-1.5176295042037964,-0.36178067326545715
1722,1355,4.010126113891602,-0.5344974994659424,-999.443115234375,0.25273948907852173,-1.5176295042037964,-0.36178067326545715
1707,1355,4.010126113891602,-0.5344974994659424,-999.443115234375,0.25273948907852173,-1.5176295042037964,-0.36178067326545715
1711,1355,4.010126113891602,-0.5344974994659424,-999.443115234375,0.25273948907852173,-1.5176295042037964,-0.36178067326545715
1631,1355,4.010126113891602,-0.5344974994659424,-999.443115234375,0.25273948907852173,-1.5176295042037964,-0.36178067326545715
1653,1355,4.010126113891602,-0.5344974994659424,-999.443115234375,0.25273948907852173,-1.5176295042037964,-0.36178067326545715
1638,1355,4.010126113891602,-0.5344974994659424,-999.443115234375,0.25273948907852173,-1.5176295042037964,-0.36178067326545715
1642,1355,4.010126113891602,-0.5344974994659424,-999.443115234375,0.25273948907852173,-1.5176295042037964,-0.36178067326545715
1723,1356,-0.271850049495697,0.18315967917442322,-998.5796508789062,1.792922019958496,0.5725589990615845,-0.2381630688905716
1695,1356,-0.271850049495697,0.18315967917442322,-998.5796508789062,1.792922019958496,0.5725589990615845,-0.2381630688905716
1688,1356,-0.271850049495697,0.18315967917442322,-998.5796508789062,1.792922019958496,0.5725589990615845,-0.2381630688905716
1702,1356,-0.271850049495697,0.18315967917442322,-998.5796508789062,1.792922019958496,0.5725589990615845,-0.2381630688905716
1654,1356,-0.271850049495697,0.18315967917442322,-998.5796508789062,1.792922019958496,0.5725589990615845,-0.2381630688905716
1626,1356,-0.271850049495697,0.18315967917442322,-998.5796508789062,1.792922019958496,0.5725589990615845,-0.2381630688905716
1619,1356,-0.271850049495697,0.18315967917442322,-998.5796508789062,1.792922019958496,0.5725589990615845,-0.2381630688905716
1633,1356,-0.271850049495697,0.18315967917442322,-998.5796508789062,1.792922019958496,0.5725589990615845,-0.2381630688905716
1712,1357,-0.6319514513015747,0.8372924327850342,-999.6947021484375,-1.0786408185958862,0.506651759147644,-0.3820251226425171
1711,1357,-0.6319514513015747,0.8372924327850342,-999.6947021484375,-1.0786408185958862,0.506651759147644,-0.3820251226425171
1702,1357,-0.6319514513015747,0.8372924327850342,-999.6947021484375,-1.0786408185958862,0.506651759147644,-0.3820251226425171
1724,1357,-0.6319514513015747,0.8372924327850342,-999.6947021484375,-1.0786408185958862,0.506651759147644,-0.3820251226425171
1643,1357,-0.6319514513015747,0.8372924327850342,-999.6947021484375,-1.0786408185958862,0.506651759147644,-0.3820251226425171
1642,1357,-0.6319514513015747,0.8372924327850342,-999.6947021484375,-1.0786408185958862,0.506651759147644,-0.3820251226425171
1633,1357,-0.6319514513015747,0.8372924327850342,-999.6947021484375,-1.0786408185958862,0.506651759147644,-0.3820251226425171
1655,1357,-0.6319514513015747,0.8372924327850342,-999.6947021484375,-1.0786408185958862,0.506651759147644,-0.3820251226425171
1712,1358,-0.7667271494865417,-2.156777858734131,-999.8463134765625,0.041820771992206573,-2.180018186569214,-0.12333192676305771
1717,1358,-0.7667271494865417,-2.156777858734131,-999.8463134765625,0.041820771992206573,-2.180018186569214,-0.12333192676305771
1710,1358,-0.7667271494865417,-2.156777858734131,-999.8463134765625,0.041820771992206573,-2.180018186569214,-0.12333192676305771
1709,1358,-0.7667271494865417,-2.156777858734131,-999.8463134765625,0.041820771992206573,-2.180018186569214,-0.12333192676305771
1643,1358,-0.7667271494865417,-2.156777858734131,-999.8463134765625,0.041820771992206573,-2.180018186569214,-0.12333192676305771
1648,1358,-0.7667271494865417,-2.156777858734131,-999.8463134765625,0.041820771992206573,-2.180018186569214,-0.12333192676305771
1641,1358,-0.7667271494865417,-2.156777858734131,-999.8463134765625,0.041820771992206573,-2.180018186569214,-0.12333192676305771
1640,1358,-0.7667271494865417,-2.156777858734131,-999.8463134765625,0.041820771992206573,-2.180018186569214,-0.12333192676305771
1702,1359,2.547276496887207,1.7948678731918335,-1000.1388549804688,-0.716500997543335,-0.6750617623329163,1.5757399797439575
1711,1359,2.547276496887207,1.7948678731918335,-1000.1388549804688,-0.716500997543335,-0.6750617623329163,1.5757399797439575
1707,1359,2.547276496887207,1.7948678731918335,-1000.1388549804688,-0.716500997543335,-0.6750617623329163,1.5757399797439575
1723,1359,2.547276496887207,1.7948678731918335,-1000.1388549804688,-0.716500997543335,-0.6750617623329163,1.5757399797439575
1633,1359,2.547276496887207,1.7948678731918335,-1000.1388549804688,-0.716500997543335,-0.6750617623329163,1.5757399797439575
1642,1359,2.547276496887207,1.7948678731918335,-1000.1388549804688,-0.716500997543335,-0.6750617623329163,1.5757399797439575
1638,1359,2.547276496887207,1.7948678731918335,-1000.1388549804688,-0.716500997543335,-0.6750617623329163,1.5757399797439575
1654,1359,2.547276496887207,1.7948678731918335,-1000.1388549804688,-0.716500997543335,-0.6750617623329163,1.5757399797439575
1713,1360,0.423029363155365,1.420137643814087,-1000.1085205078125,0.5705361366271973,-0.13091544806957245,0.12313618510961533
1667,1360,0.423029363155365,1.420137643814087,-1000.1085205078125,0.5705361366271973,-0.13091544806957245,0.12313618510961533
1666,1360,0.423029363155365,1.420137643814087,-1000.1085205078125,0.5705361366271973,-0.13091544806957245,0.12313618510961533
1683,1360,0.423029363155365,1.420137643814087,-1000.1085205078125,0.5705361366271973,-0.13091544806957245,0.12313618510961533
1644,1360,0.423029363155365,1.420137643814087,-1000.1085205078125,0.5705361366271973,-0.13091544806957245,0.12313618510961533
1598,1360,0.423029363155365,1.420137643814087,-1000.1085205078125,0.5705361366271973,-0.13091544806957245,0.12313618510961533
1597,1360,0.423029363155365,1.420137643814087,-1000.1085205078125,0.5705361366271973,-0.13091544806957245,0.12313618510961533
1614,1360,0.423029363155365,1.420137643814087,-1000.1085205078125,0.5705361366271973,-0.13091544806957245,0.12313618510961533
1715,1361,1.0945526361465454,1.441901445388794,-999.9920043945312,0.7343807816505432,0.06060738489031792,-0.1373044103384018
1658,1361,1.0945526361465454,1.441901445388794,-999.9920043945312,0.7343807816505432,0.06060738489031792,-0.1373044103384018
1673,1361,1.0945526361465454,1.441901445388794,-999.9920043945312,0.7343807816505432,0.06060738489031792,-0.1373044103384018
1693,1361,1.0945526361465454,1.441901445388794,-999.9920043945312,0.7343807816505432,0.06060738489031792,-0.1373044103384018
1646,1361,1.0945526361465454,1.441901445388794,-999.9920043945312,0.7343807816505432,0.06060738489031792,-0.1373044103384018
1589,1361,1.0945526361465454,1.441901445388794,-999.9920043945312,0.7343807816505432,0.06060738489031792,-0.1373044103384018
1604,1361,1.0945526361465454,1.441901445388794,-999.9920043945312,0.7343807816505432,0.06060738489031792,-0.1373044103384018
1624,1361,1.0945526361465454,1.441901445388794,-999.9920043945312,0.7343807816505432,0.06060738489031792,-0.1373044103384018
1692,1362,0.09879162162542343,0.36392462253570557,-998.43359375,-0.8421725034713745,-1.1988525390625,0.6608610153198242
1716,1362,0.09879162162542343,0.36392462253570557,-998.43359375,-0.8421725034713745,-1.1988525390625,0.6608610153198242
1705,1362,0.09879162162542343,0.36392462253570557,-998.43359375,-0.8421725034713745,-1.1988525390625,0.6608610153198242
1693,1362,0.09879162162542343,0.36392462253570557,-998.43359375,-0.8421725034713745,-1.1988525390625,0.6608610153198242
1623,1362,0.09879162162542343,0.36392462253570557,-998.43359375,-0.8421725034713745,-1.1988525390625,0.6608610153198242
1647,1362,0.09879162162542343,0.36392462253570557,-998.43359375,-0.8421725034713745,-1.1988525390625,0.6608610153198242
1636,1362,0.09879162162542343,0.36392462253570557,-998.43359375,-0.8421725034713745,-1.1988525390625,0.6608610153198242
1624,1362,0.09879162162542343,0.36392462253570557,-998.43359375,-0.8421725034713745,-1.1988525390625,0.6608610153198242
1716,1363,3.430384874343872,1.9870249032974243,-999.2080078125,0.5606273412704468,2.2994930744171143,-1.3113362789154053
1699,1363,3.430384874343872,1.9870249032974243,-999.2080078125,0.5606273412704468,2.2994930744171143,-1.3113362789154053
1725,1363,3.430384874343872,1.9870249032974243,-999.2080078125,0.5606273412704468,2.2994930744171143,-1.3113362789154053
1710,1363,3.430384874343872,1.9870249032974243,-999.2080078125,0.5606273412704468,2.2994930744171143,-1.3113362789154053
1647,1363,3.430384874343872,1.9870249032974243,-999.2080078125,0.5606273412704468,2.2994930744171143,-1.3113362789154053
1630,1363,3.430384874343872,1.9870249032974243,-999.2080078125,0.5606273412704468,2.2994930744171143,-1.3113362789154053
1656,1363,3.430384874343872,1.9870249032974243,-999.2080078125,0.5606273412704468,2.2994930744171143,-1.3113362789154053
1641,1363,3.430384874343872,1.9870249032974243,-999.2080078125,0.5606273412704468,2.2994930744171143,-1.3113362789154053
1718,1364,-1.159101963043213,-3.641817331314087,-1002.1153564453125,0.2598242163658142,-0.10708905011415482,-0.0424179844558239
1679,1364,-1.159101963043213,-3.641817331314087,-1002.1153564453125,0.2598242163658142,-0.10708905011415482,-0.0424179844558239
1680,1364,-1.159101963043213,-3.641817331314087,-1002.1153564453125,0.2598242163658142,-0.10708905011415482,-0.0424179844558239
1704,1364,-1.159101963043213,-3.641817331314087,-1002.1153564453125,0.2598242163658142,-0.10708905011415482,-0.0424179844558239
1649,1364,-1.159101963043213,-3.641817331314087,-1002.1153564453125,0.2598242163658142,-0.10708905011415482,-0.0424179844558239
1610,1364,-1.159101963043213,-3.641817331314087,-1002.1153564453125,0.2598242163658142,-0.10708905011415482,-0.0424179844558239
1611,1364,-1.159101963043213,-3.641817331314087,-1002.1153564453125,0.2598242163658142,-0.10708905011415482,-0.0424179844558239
1635,1364,-1.159101963043213,-3.641817331314087,-1002.1153564453125,0.2598242163658142,-0.10708905011415482,-0.0424179844558239
1719,1365,-0.3939018249511719,-2.8329832553863525,-1000.4502563476562,-0.26197633147239685,0.9294682741165161,0.4741063714027405
1697,1365,-0.3939018249511719,-2.8329832553863525,-1000.4502563476562,-0.26197633147239685,0.9294682741165161,0.4741063714027405
1682,1365,-0.3939018249511719,-2.8329832553863525,-1000.4502563476562,-0.26197633147239685,0.9294682741165161,0.4741063714027405
1703,1365,-0.3939018249511719,-2.8329832553863525,-1000.4502563476562,-0.26197633147239685,0.9294682741165161,0.4741063714027405
1650,1365,-0.3939018249511719,-2.8329832553863525,-1000.4502563476562,-0.26197633147239685,0.9294682741165161,0.4741063714027405
1628,1365,-0.3939018249511719,-2.8329832553863525,-1000.4502563476562,-0.26197633147239685,0.9294682741165161,0.4741063714027405
1613,1365,-0.3939018249511719,-2.8329832553863525,-1000.4502563476562,-0.26197633147239685,0.9294682741165161,0.4741063714027405
1634,1365,-0.3939018249511719,-2.8329832553863525,-1000.4502563476562,-0.26197633147239685,0.9294682741165161,0.4741063714027405
1721,1366,-1.8739876747131348,0.08806736767292023,-999.6382446289062,-0.05765608698129654,1.359043002128601,0.037307482212781906
1696,1366,-1.8739876747131348,0.08806736767292023,-999.6382446289062,-0.05765608698129654,1.359043002128601,0.037307482212781906
1685,1366,-1.8739876747131348,0.08806736767292023,-999.6382446289062,-0.05765608698129654,1.359043002128601,0.037307482212781906
1700,1366,-1.8739876747131348,0.08806736767292023,-999.6382446289062,-0.05765608698129654,1.359043002128601,0.037307482212781906
1652,1366,-1.8739876747131348,0.08806736767292023,-999.6382446289062,-0.05765608698129654,1.359043002128601,0.037307482212781906
1627,1366,-1.8739876747131348,0.08806736767292023,-999.6382446289062,-0.05765608698129654,1.359043002128601,0.037307482212781906
1616,1366,-1.8739876747131348,0.08806736767292023,-999.6382446289062,-0.05765608698129654,1.359043002128601,0.037307482212781906
1631,1366,-1.8739876747131348,0.08806736767292023,-999.6382446289062,-0.05765608698129654,1.359043002128601,0.037307482212781906
1722,1367,-2.16408634185791,0.032805658876895905,-998.7793579101562,0.566022515296936,1.2360267639160156,-0.5804720520973206
1686,1367,-2.16408634185791,0.032805658876895905,-998.7793579101562,0.566022515296936,1.2360267639160156,-0.5804720520973206
1687,1367,-2.16408634185791,0.032805658876895905,-998.7793579101562,0.566022515296936,1.2360267639160156,-0.5804720520973206
1707,1367,-2.16408634185791,0.032805658876895905,-998.7793579101562,0.566022515296936,1.2360267639160156,-0.5804720520973206
1653,1367,-2.16408634185791,0.032805658876895905,-998.7793579101562,0.566022515296936,1.2360267639160156,-0.5804720520973206
1617,1367,-2.16408634185791,0.032805658876895905,-998.7793579101562,0.566022515296936,1.2360267639160156,-0.5804720520973206
1618,1367,-2.16408634185791,0.032805658876895905,-998.7793579101562,0.566022515296936,1.2360267639160156,-0.5804720520973206
1638,1367,-2.16408634185791,0.032805658876895905,-998.7793579101562,0.566022515296936,1.2360267639160156,-0.5804720520973206
1724,1368,0.2594534754753113,-0.765530526638031,-999.2769775390625,0.7615874409675598,0.5627330541610718,0.06852691620588303
1689,1368,0.2594534754753113,-0.765530526638031,-999.2769775390625,0.7615874409675598,0.5627330541610718,0.06852691620588303
1694,1368,0.2594534754753113,-0.765530526638031,-999.2769775390625,0.7615874409675598,0.5627330541610718,0.06852691620588303
1706,1368,0.2594534754753113,-0.765530526638031,-999.2769775390625,0.7615874409675598,0.5627330541610718,0.06852691620588303
1655,1368,0.2594534754753113,-0.765530526638031,-999.2769775390625,0.7615874409675598,0.5627330541610718,0.06852691620588303
1620,1368,0.2594534754753113,-0.765530526638031,-999.2769775390625,0.7615874409675598,0.5627330541610718,0.06852691620588303
1625,1368,0.2594534754753113,-0.765530526638031,-999.2769775390625,0.7615874409675598,0.5627330541610718,0.06852691620588303
1637,1368,0.2594534754753113,-0.765530526638031,-999.2769775390625,0.7615874409675598,0.5627330541610718,0.06852691620588303
1749,1369,-0.4203796088695526,-1.5102019309997559,-999.9803466796875,0.19568131864070892,-0.38341066241264343,0.05745489522814751
1738,1369,-0.4203796088695526,-1.5102019309997559,-999.9803466796875,0.19568131864070892,-0.38341066241264343,0.05745489522814751
1737,1369,-0.4203796088695526,-1.5102019309997559,-999.9803466796875,0.19568131864070892,-0.38341066241264343,0.05745489522814751
1766,1369,-0.4203796088695526,-1.5102019309997559,-999.9803466796875,0.19568131864070892,-0.38341066241264343,0.05745489522814751
1680,1369,-0.4203796088695526,-1.5102019309997559,-999.9803466796875,0.19568131864070892,-0.38341066241264343,0.05745489522814751
1669,1369,-0.4203796088695526,-1.5102019309997559,-999.9803466796875,0.19568131864070892,-0.38341066241264343,0.05745489522814751
1668,1369,-0.4203796088695526,-1.5102019309997559,-999.9803466796875,0.19568131864070892,-0.38341066241264343,0.05745489522814751
1697,1369,-0.4203796088695526,-1.5102019309997559,-999.9803466796875,0.19568131864070892,-0.38341066241264343,0.05745489522814751
1766,1370,-0.5093646049499512,-1.8318228721618652,-1000.0060424804688,-0.007945858873426914,0.3208302855491638,0.20675882697105408
1737,1370,-0.5093646049499512,-1.8318228721618652,-1000.0060424804688,-0.007945858873426914,0.3208302855491638,0.20675882697105408
1746,1370,-0.5093646049499512,-1.8318228721618652,-1000.0060424804688,-0.007945858873426914,0.3208302855491638,0.20675882697105408
1751,1370,-0.5093646049499512,-1.8318228721618652,-1000.0060424804688,-0.007945858873426914,0.3208302855491638,0.20675882697105408
1697,1370,-0.5093646049499512,-1.8318228721618652,-1000.0060424804688,-0.007945858873426914,0.3208302855491638,0.20675882697105408
1668,1370,-0.5093646049499512,-1.8318228721618652,-1000.0060424804688,-0.007945858873426914,0.3208302855491638,0.20675882697105408
1677,1370,-0.5093646049499512,-1.8318228721618652,-1000.0060424804688,-0.007945858873426914,0.3208302855491638,0.20675882697105408
1682,1370,-0.5093646049499512,-1.8318228721618652,-1000.0060424804688,-0.007945858873426914,0.3208302855491638,0.20675882697105408
1747,1371,-1.3457401990890503,-1.2925950288772583,-1000.310546875,0.6254866719245911,-0.28771257400512695,0.2427574247121811
1767,1371,-1.3457401990890503,-1.2925950288772583,-1000.310546875,0.6254866719245911,-0.28771257400512695,0.2427574247121811
1750,1371,-1.3457401990890503,-1.2925950288772583,-1000.310546875,0.6254866719245911,-0.28771257400512695,0.2427574247121811
1740,1371,-1.3457401990890503,-1.2925950288772583,-1000.310546875,0.6254866719245911,-0.28771257400512695,0.2427574247121811
1678,1371,-1.3457401990890503,-1.2925950288772583,-1000.310546875,0.6254866719245911,-0.28771257400512695,0.2427574247121811
1698,1371,-1.3457401990890503,-1.2925950288772583,-1000.310546875,0.6254866719245911,-0.28771257400512695,0.2427574247121811
1681,1371,-1.3457401990890503,-1.2925950288772583,-1000.310546875,0.6254866719245911,-0.28771257400512695,0.2427574247121811
1671,1371,-1.3457401990890503,-1.2925950288772583,-1000.310546875,0.6254866719245911,-0.28771257400512695,0.2427574247121811
1738,1372,-0.5019155144691467,-2.0578689575195312,-1000.4085693359375,0.1952907145023346,0.038595423102378845,0.1255849301815033
1749,1372,-0.5019155144691467,-2.0578689575195312,-1000.4085693359375,0.1952907145023346,0.038595423102378845,0.1255849301815033
1748,1372,-0.5019155144691467,-2.0578689575195312,-1000.4085693359375,0.1952907145023346,0.038595423102378845,0.1255849301815033
1739,1372,-0.5019155144691467,-2.0578689575195312,-1000.4085693359375,0.1952907145023346,0.038595423102378845,0.1255849301815033
1669,1372,-0.5019155144691467,-2.0578689575195312,-1000.4085693359375,0.1952907145023346,0.038595423102378845,0.1255849301815033
1680,1372,-0.5019155144691467,-2.0578689575195312,-1000.4085693359375,0.1952907145023346,0.038595423102378845,0.1255849301815033
1679,1372,-0.5019155144691467,-2.0578689575195312,-1000.4085693359375,0.1952907145023346,0.038595423102378845,0.1255849301815033
1670,1372,-0.5019155144691467,-2.0578689575195312,-1000.4085693359375,0.1952907145023346,0.038595423102378845,0.1255849301815033
1777,1373,-1.6475684642791748,-1.610495686531067,-1000.070068359375,-0.9764307141304016,1.0367686748504639,1.6905221939086914
1790,1373,-1.6475684642791748,-1.610495686531067,-1000.070068359375,-0.9764307141304016,1.0367686748504639,1.6905221939086914
1769,1373,-1.6475684642791748,-1.610495686531067,-1000.070068359375,-0.9764307141304016,1.0367686748504639,1.6905221939086914
1780,1373,-1.6475684642791748,-1.610495686531067,-1000.070068359375,-0.9764307141304016,1.0367686748504639,1.6905221939086914
1708,1373,-1.6475684642791748,-1.610495686531067,-1000.070068359375,-0.9764307141304016,1.0367686748504639,1.6905221939086914
1721,1373,-1.6475684642791748,-1.610495686531067,-1000.070068359375,-0.9764307141304016,1.0367686748504639,1.6905221939086914
1700,1373,-1.6475684642791748,-1.610495686531067,-1000.070068359375,-0.9764307141304016,1.0367686748504639,1.6905221939086914
1711,1373,-1.6475684642791748,-1.610495686531067,-1000.070068359375,-0.9764307141304016,1.0367686748504639,1.6905221939086914
1793,1374,2.2157180309295654,3.0432355403900146,-998.818603515625,-0.34603917598724365,0.4609992504119873,0.5314763784408569
1771,1374,2.2157180309295654,3.0432355403900146,-998.818603515625,-0.34603917598724365,0.4609992504119873,0.5314763784408569
1757,1374,2.2157180309295654,3.0432355403900146,-998.818603515625,-0.34603917598724365,0.4609992504119873,0.5314763784408569
1758,1374,2.2157180309295654,3.0432355403900146,-998.818603515625,-0.34603917598724365,0.4609992504119873,0.5314763784408569
1724,1374,2.2157180309295654,3.0432355403900146,-998.818603515625,-0.34603917598724365,0.4609992504119873,0.5314763784408569
1702,1374,2.2157180309295654,3.0432355403900146,-998.818603515625,-0.34603917598724365,0.4609992504119873,0.5314763784408569
1688,1374,2.2157180309295654,3.0432355403900146,-998.818603515625,-0.34603917598724365,0.4609992504119873,0.5314763784408569
1689,1374,2.2157180309295654,3.0432355403900146,-998.818603515625,-0.34603917598724365,0.4609992504119873,0.5314763784408569
1781,1375,1.5320225954055786,2.0500130653381348,-999.1600952148438,-0.5765901207923889,-1.2866942882537842,-0.4658859670162201
1778,1375,1.5320225954055786,2.0500130653381348,-999.1600952148438,-0.5765901207923889,-1.2866942882537842,-0.4658859670162201
1777,1375,1.5320225954055786,2.0500130653381348,-999.1600952148438,-0.5765901207923889,-1.2866942882537842,-0.4658859670162201
1780,1375,1.5320225954055786,2.0500130653381348,-999.1600952148438,-0.5765901207923889,-1.2866942882537842,-0.4658859670162201
1712,1375,1.5320225954055786,2.0500130653381348,-999.1600952148438,-0.5765901207923889,-1.2866942882537842,-0.4658859670162201
1709,1375,1.5320225954055786,2.0500130653381348,-999.1600952148438,-0.5765901207923889,-1.2866942882537842,-0.4658859670162201
1708,1375,1.5320225954055786,2.0500130653381348,-999.1600952148438,-0.5765901207923889,-1.2866942882537842,-0.4658859670162201
1711,1375,1.5320225954055786,2.0500130653381348,-999.1600952148438,-0.5765901207923889,-1.2866942882537842,-0.4658859670162201
1772,1376,-2.089449167251587,-3.476506471633911,-1000.2389526367188,-0.6285786628723145,1.1902885437011719,-0.24171341955661774
1789,1376,-2.089449167251587,-3.476506471633911,-1000.2389526367188,-0.6285786628723145,1.1902885437011719,-0.24171341955661774
1777,1376,-2.089449167251587,-3.476506471633911,-1000.2389526367188,-0.6285786628723145,1.1902885437011719,-0.24171341955661774
1778,1376,-2.089449167251587,-3.476506471633911,-1000.2389526367188,-0.6285786628723145,1.1902885437011719,-0.24171341955661774
1703,1376,-2.089449167251587,-3.476506471633911,-1000.2389526367188,-0.6285786628723145,1.1902885437011719,-0.24171341955661774
1720,1376,-2.089449167251587,-3.476506471633911,-1000.2389526367188,-0.6285786628723145,1.1902885437011719,-0.24171341955661774
1708,1376,-2.089449167251587,-3.476506471633911,-1000.2389526367188,-0.6285786628723145,1.1902885437011719,-0.24171341955661774
1709,1376,-2.089449167251587,-3.476506471633911,-1000.2389526367188,-0.6285786628723145,1.1902885437011719,-0.24171341955661774
1752,1377,1.623250961303711,1.295551061630249,-999.9354858398438,1.0798603296279907,0.8532900810241699,-0.9380738139152527
1765,1377,1.623250961303711,1.295551061630249,-999.9354858398438,1.0798603296279907,0.8532900810241699,-0.9380738139152527
1790,1377,1.623250961303711,1.295551061630249,-999.9354858398438,1.0798603296279907,0.8532900810241699,-0.9380738139152527
1777,1377,1.623250961303711,1.295551061630249,-999.9354858398438,1.0798603296279907,0.8532900810241699,-0.9380738139152527
1683,1377,1.623250961303711,1.295551061630249,-999.9354858398438,1.0798603296279907,0.8532900810241699,-0.9380738139152527
1696,1377,1.623250961303711,1.295551061630249,-999.9354858398438,1.0798603296279907,0.8532900810241699,-0.9380738139152527
1721,1377,1.623250961303711,1.295551061630249,-999.9354858398438,1.0798603296279907,0.8532900810241699,-0.9380738139152527
1708,1377,1.623250961303711,1.295551061630249,-999.9354858398438,1.0798603296279907,0.8532900810241699,-0.9380738139152527
1792,1378,4.98323392868042,1.7869237661361694,-998.1224975585938,0.3074008822441101,-0.11352410912513733,0.9952803254127502
1776,1378,4.98323392868042,1.7869237661361694,-998.1224975585938,0.3074008822441101,-0.11352410912513733,0.9952803254127502
1756,1378,4.98323392868042,1.7869237661361694,-998.1224975585938,0.3074008822441101,-0.11352410912513733,0.9952803254127502
1764,1378,4.98323392868042,1.7869237661361694,-998.1224975585938,0.3074008822441101,-0.11352410912513733,0.9952803254127502
1723,1378,4.98323392868042,1.7869237661361694,-998.1224975585938,0.3074008822441101,-0.11352410912513733,0.9952803254127502
1707,1378,4.98323392868042,1.7869237661361694,-998.1224975585938,0.3074008822441101,-0.11352410912513733,0.9952803254127502
1687,1378,4.98323392868042,1.7869237661361694,-998.1224975585938,0.3074008822441101,-0.11352410912513733,0.9952803254127502
1695,1378,4.98323392868042,1.7869237661361694,-998.1224975585938,0.3074008822441101,-0.11352410912513733,0.9952803254127502
1786,1379,-1.6223225593566895,-1.7501490116119385,-1001.0658569335938,-0.8570501208305359,-2.0245397090911865,1.8215713500976562
1781,1379,-1.6223225593566895,-1.7501490116119385,-1001.0658569335938,-0.8570501208305359,-2.0245397090911865,1.8215713500976562
1760,1379,-1.6223225593566895,-1.7501490116119385,-1001.0658569335938,-0.8570501208305359,-2.0245397090911865,1.8215713500976562
1774,1379,-1.6223225593566895,-1.7501490116119385,-1001.0658569335938,-0.8570501208305359,-2.0245397090911865,1.8215713500976562
1717,1379,-1.6223225593566895,-1.7501490116119385,-1001.0658569335938,-0.8570501208305359,-2.0245397090911865,1.8215713500976562
1712,1379,-1.6223225593566895,-1.7501490116119385,-1001.0658569335938,-0.8570501208305359,-2.0245397090911865,1.8215713500976562
1691,1379,-1.6223225593566895,-1.7501490116119385,-1001.0658569335938,-0.8570501208305359,-2.0245397090911865,1.8215713500976562
1705,1379,-1.6223225593566895,-1.7501490116119385,-1001.0658569335938,-0.8570501208305359,-2.0245397090911865,1.8215713500976562
1760,1380,0.8770729303359985,0.331137478351593,-1000.4474487304688,1.0984461307525635,-0.20103733241558075,-1.3879495859146118
1775,1380,0.8770729303359985,0.331137478351593,-1000.4474487304688,1.0984461307525635,-0.20103733241558075,-1.3879495859146118
1783,1380,0.8770729303359985,0.331137478351593,-1000.4474487304688,1.0984461307525635,-0.20103733241558075,-1.3879495859146118
1784,1380,0.8770729303359985,0.331137478351593,-1000.4474487304688,1.0984461307525635,-0.20103733241558075,-1.3879495859146118
1691,1380,0.8770729303359985,0.331137478351593,-1000.4474487304688,1.0984461307525635,-0.20103733241558075,-1.3879495859146118
1706,1380,0.8770729303359985,0.331137478351593,-1000.4474487304688,1.0984461307525635,-0.20103733241558075,-1.3879495859146118
1714,1380,0.8770729303359985,0.331137478351593,-1000.4474487304688,1.0984461307525635,-0.20103733241558075,-1.3879495859146118
1715,1380,0.8770729303359985,0.331137478351593,-1000.4474487304688,1.0984461307525635,-0.20103733241558075,-1.3879495859146118
1767,1381,1.0731489658355713,1.034168004989624,-1002.2715454101562,-1.4674738645553589,0.6644811034202576,-0.11586397141218185
1748,1381,1.0731489658355713,1.034168004989624,-1002.2715454101562,-1.4674738645553589,0.6644811034202576,-0.11586397141218185
1787,1381,1.0731489658355713,1.034168004989624,-1002.2715454101562,-1.4674738645553589,0.6644811034202576,-0.11586397141218185
1770,1381,1.0731489658355713,1.034168004989624,-1002.2715454101562,-1.4674738645553589,0.6644811034202576,-0.11586397141218185
1698,1381,1.0731489658355713,1.034168004989624,-1002.2715454101562,-1.4674738645553589,0.6644811034202576,-0.11586397141218185
1679,1381,1.0731489658355713,1.034168004989624,-1002.2715454101562,-1.4674738645553589,0.6644811034202576,-0.11586397141218185
1718,1381,1.0731489658355713,1.034168004989624,-1002.2715454101562,-1.4674738645553589,0.6644811034202576,-0.11586397141218185
1701,1381,1.0731489658355713,1.034168004989624,-1002.2715454101562,-1.4674738645553589,0.6644811034202576,-0.11586397141218185
1794,1382,2.337994337081909,2.1665568351745605,-997.7188720703125,-0.8826634287834167,0.657902181148529,0.34592366218566895
1750,1382,2.337994337081909,2.1665568351745605,-997.7188720703125,-0.8826634287834167,0.657902181148529,0.34592366218566895
1767,1382,2.337994337081909,2.1665568351745605,-997.7188720703125,-0.8826634287834167,0.657902181148529,0.34592366218566895
1770,1382,2.337994337081909,2.1665568351745605,-997.7188720703125,-0.8826634287834167,0.657902181148529,0.34592366218566895
1725,1382,2.337994337081909,2.1665568351745605,-997.7188720703125,-0.8826634287834167,0.657902181148529,0.34592366218566895
1681,1382,2.337994337081909,2.1665568351745605,-997.7188720703125,-0.8826634287834167,0.657902181148529,0.34592366218566895
1698,1382,2.337994337081909,2.1665568351745605,-997.7188720703125,-0.8826634287834167,0.657902181148529,0.34592366218566895
1701,1382,2.337994337081909,2.1665568351745605,-997.7188720703125,-0.8826634287834167,0.657902181148529,0.34592366218566895
1754,1383,3.2732787132263184,1.0025343894958496,-998.8409423828125,0.6187400221824646,-0.3725673258304596,-1.326066493988037
1755,1383,3.2732787132263184,1.0025343894958496,-998.8409423828125,0.6187400221824646,-0.3725673258304596,-1.326066493988037
1791,1383,3.2732787132263184,1.0025343894958496,-998.8409423828125,0.6187400221824646,-0.3725673258304596,-1.326066493988037
1769,1383,3.2732787132263184,1.0025343894958496,-998.8409423828125,0.6187400221824646,-0.3725673258304596,-1.326066493988037
1685,1383,3.2732787132263184,1.0025343894958496,-998.8409423828125,0.6187400221824646,-0.3725673258304596,-1.326066493988037
1686,1383,3.2732787132263184,1.0025343894958496,-998.8409423828125,0.6187400221824646,-0.3725673258304596,-1.326066493988037
1722,1383,3.2732787132263184,1.0025343894958496,-998.8409423828125,0.6187400221824646,-0.3725673258304596,-1.326066493988037
1700,1383,3.2732787132263184,1.0025343894958496,-998.8409423828125,0.6187400221824646,-0.3725673258304596,-1.326066493988037
1739,1384,-0.874996542930603,-1.3663408756256104,-999.8720092773438,0.8657000660896301,-0.18350867927074432,-0.09579917043447495
1748,1384,-0.874996542930603,-1.3663408756256104,-999.8720092773438,0.8657000660896301,-0.18350867927074432,-0.09579917043447495
1767,1384,-0.874996542930603,-1.3663408756256104,-999.8720092773438,0.8657000660896301,-0.18350867927074432,-0.09579917043447495
1747,1384,-0.874996542930603,-1.3663408756256104,-999.8720092773438,0.8657000660896301,-0.18350867927074432,-0.09579917043447495
1670,1384,-0.874996542930603,-1.3663408756256104,-999.8720092773438,0.8657000660896301,-0.18350867927074432,-0.09579917043447495
1679,1384,-0.874996542930603,-1.3663408756256104,-999.8720092773438,0.8657000660896301,-0.18350867927074432,-0.09579917043447495
1698,1384,-0.874996542930603,-1.3663408756256104,-999.8720092773438,0.8657000660896301,-0.18350867927074432,-0.09579917043447495
1678,1384,-0.874996542930603,-1.3663408756256104,-999.8720092773438,0.8657000660896301,-0.18350867927074432,-0.09579917043447495
1736,1385,-0.7070184350013733,-2.8191514015197754,-1000.3006591796875,0.151709645986557,-0.11108002066612244,-0.02423422411084175
1782,1385,-0.7070184350013733,-2.8191514015197754,-1000.3006591796875,0.151709645986557,-0.11108002066612244,-0.02423422411084175
1751,1385,-0.7070184350013733,-2.8191514015197754,-1000.3006591796875,0.151709645986557,-0.11108002066612244,-0.02423422411084175
1746,1385,-0.7070184350013733,-2.8191514015197754,-1000.3006591796875,0.151709645986557,-0.11108002066612244,-0.02423422411084175
1667,1385,-0.7070184350013733,-2.8191514015197754,-1000.3006591796875,0.151709645986557,-0.11108002066612244,-0.02423422411084175
1713,1385,-0.7070184350013733,-2.8191514015197754,-1000.3006591796875,0.151709645986557,-0.11108002066612244,-0.02423422411084175
1682,1385,-0.7070184350013733,-2.8191514015197754,-1000.3006591796875,0.151709645986557,-0.11108002066612244,-0.02423422411084175
1677,1385,-0.7070184350013733,-2.8191514015197754,-1000.3006591796875,0.151709645986557,-0.11108002066612244,-0.02423422411084175
1752,1386,-1.3988443613052368,-0.7041366100311279,-1000.055419921875,-0.5405640602111816,-0.09327203780412674,0.3547869324684143
1735,1386,-1.3988443613052368,-0.7041366100311279,-1000.055419921875,-0.5405640602111816,-0.09327203780412674,0.3547869324684143
1745,1386,-1.3988443613052368,-0.7041366100311279,-1000.055419921875,-0.5405640602111816,-0.09327203780412674,0.3547869324684143
1765,1386,-1.3988443613052368,-0.7041366100311279,-1000.055419921875,-0.5405640602111816,-0.09327203780412674,0.3547869324684143
1683,1386,-1.3988443613052368,-0.7041366100311279,-1000.055419921875,-0.5405640602111816,-0.09327203780412674,0.3547869324684143
1666,1386,-1.3988443613052368,-0.7041366100311279,-1000.055419921875,-0.5405640602111816,-0.09327203780412674,0.3547869324684143
1676,1386,-1.3988443613052368,-0.7041366100311279,-1000.055419921875,-0.5405640602111816,-0.09327203780412674,0.3547869324684143
1696,1386,-1.3988443613052368,-0.7041366100311279,-1000.055419921875,-0.5405640602111816,-0.09327203780412674,0.3547869324684143
1753,1387,-2.4037342071533203,-0.49410441517829895,-999.8201904296875,0.2267189472913742,-0.2564030587673187,-0.05137491971254349
1741,1387,-2.4037342071533203,-0.49410441517829895,-999.8201904296875,0.2267189472913742,-0.2564030587673187,-0.05137491971254349
1740,1387,-2.4037342071533203,-0.49410441517829895,-999.8201904296875,0.2267189472913742,-0.2564030587673187,-0.05137491971254349
1750,1387,-2.4037342071533203,-0.49410441517829895,-999.8201904296875,0.2267189472913742,-0.2564030587673187,-0.05137491971254349
1684,1387,-2.4037342071533203,-0.49410441517829895,-999.8201904296875,0.2267189472913742,-0.2564030587673187,-0.05137491971254349
1672,1387,-2.4037342071533203,-0.49410441517829895,-999.8201904296875,0.2267189472913742,-0.2564030587673187,-0.05137491971254349
1671,1387,-2.4037342071533203,-0.49410441517829895,-999.8201904296875,0.2267189472913742,-0.2564030587673187,-0.05137491971254349
1681,1387,-2.4037342071533203,-0.49410441517829895,-999.8201904296875,0.2267189472913742,-0.2564030587673187,-0.05137491971254349
1765,1388,-1.7867786884307861,-0.24509918689727783,-1000.0586547851562,-0.09752480685710907,0.3063342273235321,-0.0777430608868599
1745,1388,-1.7867786884307861,-0.24509918689727783,-1000.0586547851562,-0.09752480685710907,0.3063342273235321,-0.0777430608868599
1734,1388,-1.7867786884307861,-0.24509918689727783,-1000.0586547851562,-0.09752480685710907,0.3063342273235321,-0.0777430608868599
1754,1388,-1.7867786884307861,-0.24509918689727783,-1000.0586547851562,-0.09752480685710907,0.3063342273235321,-0.0777430608868599
1696,1388,-1.7867786884307861,-0.24509918689727783,-1000.0586547851562,-0.09752480685710907,0.3063342273235321,-0.0777430608868599
1676,1388,-1.7867786884307861,-0.24509918689727783,-1000.0586547851562,-0.09752480685710907,0.3063342273235321,-0.0777430608868599
1665,1388,-1.7867786884307861,-0.24509918689727783,-1000.0586547851562,-0.09752480685710907,0.3063342273235321,-0.0777430608868599
1685,1388,-1.7867786884307861,-0.24509918689727783,-1000.0586547851562,-0.09752480685710907,0.3063342273235321,-0.0777430608868599
1789,1389,0.5381987690925598,1.5612565279006958,-1000.11865234375,1.2905257940292358,-0.8052622079849243,0.4797437787055969
1782,1389,0.5381987690925598,1.5612565279006958,-1000.11865234375,1.2905257940292358,-0.8052622079849243,0.4797437787055969
1752,1389,0.5381987690925598,1.5612565279006958,-1000.11865234375,1.2905257940292358,-0.8052622079849243,0.4797437787055969
1777,1389,0.5381987690925598,1.5612565279006958,-1000.11865234375,1.2905257940292358,-0.8052622079849243,0.4797437787055969
1720,1389,0.5381987690925598,1.5612565279006958,-1000.11865234375,1.2905257940292358,-0.8052622079849243,0.4797437787055969
1713,1389,0.5381987690925598,1.5612565279006958,-1000.11865234375,1.2905257940292358,-0.8052622079849243,0.4797437787055969
1683,1389,0.5381987690925598,1.5612565279006958,-1000.11865234375,1.2905257940292358,-0.8052622079849243,0.4797437787055969
1708,1389,0.5381987690925598,1.5612565279006958,-1000.11865234375,1.2905257940292358,-0.8052622079849243,0.4797437787055969
1754,1390,-1.380167007446289,-0.4669961631298065,-1000.1470336914062,-0.02252090722322464,0.2914077341556549,0.4675144553184509
1734,1390,-1.380167007446289,-0.4669961631298065,-1000.1470336914062,-0.02252090722322464,0.2914077341556549,0.4675144553184509
1733,1390,-1.380167007446289,-0.4669961631298065,-1000.1470336914062,-0.02252090722322464,0.2914077341556549,0.4675144553184509
1755,1390,-1.380167007446289,-0.4669961631298065,-1000.1470336914062,-0.02252090722322464,0.2914077341556549,0.4675144553184509
1685,1390,-1.380167007446289,-0.4669961631298065,-1000.1470336914062,-0.02252090722322464,0.2914077341556549,0.4675144553184509
1665,1390,-1.380167007446289,-0.4669961631298065,-1000.1470336914062,-0.02252090722322464,0.2914077341556549,0.4675144553184509
1664,1390,-1.380167007446289,-0.4669961631298065,-1000.1470336914062,-0.02252090722322464,0.2914077341556549,0.4675144553184509
1686,1390,-1.380167007446289,-0.4669961631298065,-1000.1470336914062,-0.02252090722322464,0.2914077341556549,0.4675144553184509
1755,1391,-1.654624104499817,-0.3272559344768524,-999.8760375976562,0.04842230677604675,0.19783756136894226,-0.4367917776107788
1733,1391,-1.654624104499817,-0.3272559344768524,-999.8760375976562,0.04842230677604675,0.19783756136894226,-0.4367917776107788
1732,1391,-1.654624104499817,-0.3272559344768524,-999.8760375976562,0.04842230677604675,0.19783756136894226,-0.4367917776107788
1756,1391,-1.654624104499817,-0.3272559344768524,-999.8760375976562,0.04842230677604675,0.19783756136894226,-0.4367917776107788
1686,1391,-1.654624104499817,-0.3272559344768524,-999.8760375976562,0.04842230677604675,0.19783756136894226,-0.4367917776107788
1664,1391,-1.654624104499817,-0.3272559344768524,-999.8760375976562,0.04842230677604675,0.19783756136894226,-0.4367917776107788
1663,1391,-1.654624104499817,-0.3272559344768524,-999.8760375976562,0.04842230677604675,0.19783756136894226,-0.4367917776107788
1687,1391,-1.654624104499817,-0.3272559344768524,-999.8760375976562,0.04842230677604675,0.19783756136894226,-0.4367917776107788
1786,1392,0.047842446714639664,-1.6443158388137817,-998.3628540039062,-0.8767946362495422,-0.21484297513961792,-2.1141953468322754
1774,1392,0.047842446714639664,-1.6443158388137817,-998.3628540039062,-0.8767946362495422,-0.21484297513961792,-2.1141953468322754
1785,1392,0.047842446714639664,-1.6443158388137817,-998.3628540039062,-0.8767946362495422,-0.21484297513961792,-2.1141953468322754
1779,1392,0.047842446714639664,-1.6443158388137817,-998.3628540039062,-0.8767946362495422,-0.21484297513961792,-2.1141953468322754
1717,1392,0.047842446714639664,-1.6443158388137817,-998.3628540039062,-0.8767946362495422,-0.21484297513961792,-2.1141953468322754
1705,1392,0.047842446714639664,-1.6443158388137817,-998.3628540039062,-0.8767946362495422,-0.21484297513961792,-2.1141953468322754
1716,1392,0.047842446714639664,-1.6443158388137817,-998.3628540039062,-0.8767946362495422,-0.21484297513961792,-2.1141953468322754
1710,1392,0.047842446714639664,-1.6443158388137817,-998.3628540039062,-0.8767946362495422,-0.21484297513961792,-2.1141953468322754
1741,1393,-2.297081708908081,-1.104212999343872,-1000.2994384765625,-0.5321326851844788,-0.10871826112270355,0.14503248035907745
1753,1393,-2.297081708908081,-1.104212999343872,-1000.2994384765625,-0.5321326851844788,-0.10871826112270355,0.14503248035907745
1761,1393,-2.297081708908081,-1.104212999343872,-1000.2994384765625,-0.5321326851844788,-0.10871826112270355,0.14503248035907745
1726,1393,-2.297081708908081,-1.104212999343872,-1000.2994384765625,-0.5321326851844788,-0.10871826112270355,0.14503248035907745
1672,1393,-2.297081708908081,-1.104212999343872,-1000.2994384765625,-0.5321326851844788,-0.10871826112270355,0.14503248035907745
1684,1393,-2.297081708908081,-1.104212999343872,-1000.2994384765625,-0.5321326851844788,-0.10871826112270355,0.14503248035907745
1692,1393,-2.297081708908081,-1.104212999343872,-1000.2994384765625,-0.5321326851844788,-0.10871826112270355,0.14503248035907745
1657,1393,-2.297081708908081,-1.104212999343872,-1000.2994384765625,-0.5321326851844788,-0.10871826112270355,0.14503248035907745
1756,1394,-2.364551305770874,-0.5991733074188232,-1000.3781127929688,0.03157826513051987,0.26146331429481506,0.10887465626001358
1732,1394,-2.364551305770874,-0.5991733074188232,-1000.3781127929688,0.03157826513051987,0.26146331429481506,0.10887465626001358
1744,1394,-2.364551305770874,-0.5991733074188232,-1000.3781127929688,0.03157826513051987,0.26146331429481506,0.10887465626001358
1764,1394,-2.364551305770874,-0.5991733074188232,-1000.3781127929688,0.03157826513051987,0.26146331429481506,0.10887465626001358
1687,1394,-2.364551305770874,-0.5991733074188232,-1000.3781127929688,0.03157826513051987,0.26146331429481506,0.10887465626001358
1663,1394,-2.364551305770874,-0.5991733074188232,-1000.3781127929688,0.03157826513051987,0.26146331429481506,0.10887465626001358
1675,1394,-2.364551305770874,-0.5991733074188232,-1000.3781127929688,0.03157826513051987,0.26146331429481506,0.10887465626001358
1695,1394,-2.364551305770874,-0.5991733074188232,-1000.3781127929688,0.03157826513051987,0.26146331429481506,0.10887465626001358
1764,1395,-1.4898459911346436,-0.5223110318183899,-999.7142944335938,0.7530180811882019,0.026683155447244644,-0.42524003982543945
1744,1395,-1.4898459911346436,-0.5223110318183899,-999.7142944335938,0.7530180811882019,0.026683155447244644,-0.42524003982543945
1731,1395,-1.4898459911346436,-0.5223110318183899,-999.7142944335938,0.7530180811882019,0.026683155447244644,-0.42524003982543945
1757,1395,-1.4898459911346436,-0.5223110318183899,-999.7142944335938,0.7530180811882019,0.026683155447244644,-0.42524003982543945
1695,1395,-1.4898459911346436,-0.5223110318183899,-999.7142944335938,0.7530180811882019,0.026683155447244644,-0.42524003982543945
1675,1395,-1.4898459911346436,-0.5223110318183899,-999.7142944335938,0.7530180811882019,0.026683155447244644,-0.42524003982543945
1662,1395,-1.4898459911346436,-0.5223110318183899,-999.7142944335938,0.7530180811882019,0.026683155447244644,-0.42524003982543945
1688,1395,-1.4898459911346436,-0.5223110318183899,-999.7142944335938,0.7530180811882019,0.026683155447244644,-0.42524003982543945
1757,1396,-1.3232228755950928,-1.7603042125701904,-1000.39453125,0.6726052165031433,0.10504242777824402,0.08004999905824661
1731,1396,-1.3232228755950928,-1.7603042125701904,-1000.39453125,0.6726052165031433,0.10504242777824402,0.08004999905824661
1730,1396,-1.3232228755950928,-1.7603042125701904,-1000.39453125,0.6726052165031433,0.10504242777824402,0.08004999905824661
1758,1396,-1.3232228755950928,-1.7603042125701904,-1000.39453125,0.6726052165031433,0.10504242777824402,0.08004999905824661
1688,1396,-1.3232228755950928,-1.7603042125701904,-1000.39453125,0.6726052165031433,0.10504242777824402,0.08004999905824661
1662,1396,-1.3232228755950928,-1.7603042125701904,-1000.39453125,0.6726052165031433,0.10504242777824402,0.08004999905824661
1661,1396,-1.3232228755950928,-1.7603042125701904,-1000.39453125,0.6726052165031433,0.10504242777824402,0.08004999905824661
1689,1396,-1.3232228755950928,-1.7603042125701904,-1000.39453125,0.6726052165031433,0.10504242777824402,0.08004999905824661
1758,1397,-0.5962684750556946,-2.0115678310394287,-999.8099975585938,0.2836659252643585,0.03610188513994217,-0.2138410061597824
1730,1397,-0.5962684750556946,-2.0115678310394287,-999.8099975585938,0.2836659252643585,0.03610188513994217,-0.2138410061597824
1743,1397,-0.5962684750556946,-2.0115678310394287,-999.8099975585938,0.2836659252643585,0.03610188513994217,-0.2138410061597824
1763,1397,-0.5962684750556946,-2.0115678310394287,-999.8099975585938,0.2836659252643585,0.03610188513994217,-0.2138410061597824
1689,1397,-0.5962684750556946,-2.0115678310394287,-999.8099975585938,0.2836659252643585,0.03610188513994217,-0.2138410061597824
1661,1397,-0.5962684750556946,-2.0115678310394287,-999.8099975585938,0.2836659252643585,0.03610188513994217,-0.2138410061597824
1674,1397,-0.5962684750556946,-2.0115678310394287,-999.8099975585938,0.2836659252643585,0.03610188513994217,-0.2138410061597824
1694,1397,-0.5962684750556946,-2.0115678310394287,-999.8099975585938,0.2836659252643585,0.03610188513994217,-0.2138410061597824
1763,1398,-0.8480878472328186,-2.595564365386963,-1000.383544921875,0.1296522170305252,0.2052384465932846,-0.45222708582878113
1743,1398,-0.8480878472328186,-2.595564365386963,-1000.383544921875,0.1296522170305252,0.2052384465932846,-0.45222708582878113
1729,1398,-0.8480878472328186,-2.595564365386963,-1000.383544921875,0.1296522170305252,0.2052384465932846,-0.45222708582878113
1759,1398,-0.8480878472328186,-2.595564365386963,-1000.383544921875,0.1296522170305252,0.2052384465932846,-0.45222708582878113
1694,1398,-0.8480878472328186,-2.595564365386963,-1000.383544921875,0.1296522170305252,0.2052384465932846,-0.45222708582878113
1674,1398,-0.8480878472328186,-2.595564365386963,-1000.383544921875,0.1296522170305252,0.2052384465932846,-0.45222708582878113
1660,1398,-0.8480878472328186,-2.595564365386963,-1000.383544921875,0.1296522170305252,0.2052384465932846,-0.45222708582878113
1690,1398,-0.8480878472328186,-2.595564365386963,-1000.383544921875,0.1296522170305252,0.2052384465932846,-0.45222708582878113
1783,1399,-1.2519960403442383,-1.7040948867797852,-1000.3229370117188,-0.5823506712913513,0.17130976915359497,0.06696414947509766
1728,1399,-1.2519960403442383,-1.7040948867797852,-1000.3229370117188,-0.5823506712913513,0.17130976915359497,0.06696414947509766
1727,1399,-1.2519960403442383,-1.7040948867797852,-1000.3229370117188,-0.5823506712913513,0.17130976915359497,0.06696414947509766
1784,1399,-1.2519960403442383,-1.7040948867797852,-1000.3229370117188,-0.5823506712913513,0.17130976915359497,0.06696414947509766
1714,1399,-1.2519960403442383,-1.7040948867797852,-1000.3229370117188,-0.5823506712913513,0.17130976915359497,0.06696414947509766
1659,1399,-1.2519960403442383,-1.7040948867797852,-1000.3229370117188,-0.5823506712913513,0.17130976915359497,0.06696414947509766
1658,1399,-1.2519960403442383,-1.7040948867797852,-1000.3229370117188,-0.5823506712913513,0.17130976915359497,0.06696414947509766
1715,1399,-1.2519960403442383,-1.7040948867797852,-1000.3229370117188,-0.5823506712913513,0.17130976915359497,0.06696414947509766
1762,1400,-1.0934323072433472,-0.8087217211723328,-999.9132080078125,-0.5696902275085449,-0.30990105867385864,-0.14993469417095184
1742,1400,-1.0934323072433472,-0.8087217211723328,-999.9132080078125,-0.5696902275085449,-0.30990105867385864,-0.14993469417095184
1726,1400,-1.0934323072433472,-0.8087217211723328,-999.9132080078125,-0.5696902275085449,-0.30990105867385864,-0.14993469417095184
1761,1400,-1.0934323072433472,-0.8087217211723328,-999.9132080078125,-0.5696902275085449,-0.30990105867385864,-0.14993469417095184
1693,1400,-1.0934323072433472,-0.8087217211723328,-999.9132080078125,-0.5696902275085449,-0.30990105867385864,-0.14993469417095184
1673,1400,-1.0934323072433472,-0.8087217211723328,-999.9132080078125,-0.5696902275085449,-0.30990105867385864,-0.14993469417095184
1657,1400,-1.0934323072433472,-0.8087217211723328,-999.9132080078125,-0.5696902275085449,-0.30990105867385864,-0.14993469417095184
1692,1400,-1.0934323072433472,-0.8087217211723328,-999.9132080078125,-0.5696902275085449,-0.30990105867385864,-0.14993469417095184
1785,1401,4.420504570007324,3.2675092220306396,-997.347900390625,0.9257045388221741,0.0054021356627345085,1.056624174118042
1761,1401,4.420504570007324,3.2675092220306396,-997.347900390625,0.9257045388221741,0.0054021356627345085,1.056624174118042
1753,1401,4.420504570007324,3.2675092220306396,-997.347900390625,0.9257045388221741,0.0054021356627345085,1.056624174118042
1768,1401,4.420504570007324,3.2675092220306396,-997.347900390625,0.9257045388221741,0.0054021356627345085,1.056624174118042
1716,1401,4.420504570007324,3.2675092220306396,-997.347900390625,0.9257045388221741,0.0054021356627345085,1.056624174118042
1692,1401,4.420504570007324,3.2675092220306396,-997.347900390625,0.9257045388221741,0.0054021356627345085,1.056624174118042
1684,1401,4.420504570007324,3.2675092220306396,-997.347900390625,0.9257045388221741,0.0054021356627345085,1.056624174118042
1699,1401,4.420504570007324,3.2675092220306396,-997.347900390625,0.9257045388221741,0.0054021356627345085,1.056624174118042
1784,1402,2.248185873031616,3.412508726119995,-998.5873413085938,0.5413245558738708,-0.16291797161102295,0.7015799283981323
1762,1402,2.248185873031616,3.412508726119995,-998.5873413085938,0.5413245558738708,-0.16291797161102295,0.7015799283981323
1774,1402,2.248185873031616,3.412508726119995,-998.5873413085938,0.5413245558738708,-0.16291797161102295,0.7015799283981323
1760,1402,2.248185873031616,3.412508726119995,-998.5873413085938,0.5413245558738708,-0.16291797161102295,0.7015799283981323
1715,1402,2.248185873031616,3.412508726119995,-998.5873413085938,0.5413245558738708,-0.16291797161102295,0.7015799283981323
1693,1402,2.248185873031616,3.412508726119995,-998.5873413085938,0.5413245558738708,-0.16291797161102295,0.7015799283981323
1705,1402,2.248185873031616,3.412508726119995,-998.5873413085938,0.5413245558738708,-0.16291797161102295,0.7015799283981323
1691,1402,2.248185873031616,3.412508726119995,-998.5873413085938,0.5413245558738708,-0.16291797161102295,0.7015799283981323
1759,1403,-0.5837235450744629,-1.7931777238845825,-999.8949584960938,-0.5673474073410034,-0.25595855712890625,-0.3365229368209839
1729,1403,-0.5837235450744629,-1.7931777238845825,-999.8949584960938,-0.5673474073410034,-0.25595855712890625,-0.3365229368209839
1728,1403,-0.5837235450744629,-1.7931777238845825,-999.8949584960938,-0.5673474073410034,-0.25595855712890625,-0.3365229368209839
1783,1403,-0.5837235450744629,-1.7931777238845825,-999.8949584960938,-0.5673474073410034,-0.25595855712890625,-0.3365229368209839
1690,1403,-0.5837235450744629,-1.7931777238845825,-999.8949584960938,-0.5673474073410034,-0.25595855712890625,-0.3365229368209839
1660,1403,-0.5837235450744629,-1.7931777238845825,-999.8949584960938,-0.5673474073410034,-0.25595855712890625,-0.3365229368209839
1659,1403,-0.5837235450744629,-1.7931777238845825,-999.8949584960938,-0.5673474073410034,-0.25595855712890625,-0.3365229368209839
1714,1403,-0.5837235450744629,-1.7931777238845825,-999.8949584960938,-0.5673474073410034,-0.25595855712890625,-0.3365229368209839
1768,1404,2.0739119052886963,-0.7750022411346436,-1002.8341064453125,-0.5003734230995178,1.2223180532455444,-1.5218003988265991
1753,1404,2.0739119052886963,-0.7750022411346436,-1002.8341064453125,-0.5003734230995178,1.2223180532455444,-1.5218003988265991
1750,1404,2.0739119052886963,-0.7750022411346436,-1002.8341064453125,-0.5003734230995178,1.2223180532455444,-1.5218003988265991
1794,1404,2.0739119052886963,-0.7750022411346436,-1002.8341064453125,-0.5003734230995178,1.2223180532455444,-1.5218003988265991
1699,1404,2.0739119052886963,-0.7750022411346436,-1002.8341064453125,-0.5003734230995178,1.2223180532455444,-1.5218003988265991
1684,1404,2.0739119052886963,-0.7750022411346436,-1002.8341064453125,-0.5003734230995178,1.2223180532455444,-1.5218003988265991
1681,1404,2.0739119052886963,-0.7750022411346436,-1002.8341064453125,-0.5003734230995178,1.2223180532455444,-1.5218003988265991
1725,1404,2.0739119052886963,-0.7750022411346436,-1002.8341064453125,-0.5003734230995178,1.2223180532455444,-1.5218003988265991
1779,1405,-0.4423937499523163,0.3374430537223816,-999.4280395507812,1.2847657203674316,-0.3050546944141388,-0.13005949556827545
1794,1405,-0.4423937499523163,0.3374430537223816,-999.4280395507812,1.2847657203674316,-0.3050546944141388,-0.13005949556827545
1770,1405,-0.4423937499523163,0.3374430537223816,-999.4280395507812,1.2847657203674316,-0.3050546944141388,-0.13005949556827545
1778,1405,-0.4423937499523163,0.3374430537223816,-999.4280395507812,1.2847657203674316,-0.3050546944141388,-0.13005949556827545
1710,1405,-0.4423937499523163,0.3374430537223816,-999.4280395507812,1.2847657203674316,-0.3050546944141388,-0.13005949556827545
1725,1405,-0.4423937499523163,0.3374430537223816,-999.4280395507812,1.2847657203674316,-0.3050546944141388,-0.13005949556827545
1701,1405,-0.4423937499523163,0.3374430537223816,-999.4280395507812,1.2847657203674316,-0.3050546944141388,-0.13005949556827545
1709,1405,-0.4423937499523163,0.3374430537223816,-999.4280395507812,1.2847657203674316,-0.3050546944141388,-0.13005949556827545
1749,1406,0.7030819058418274,2.683661699295044,-1001.3292236328125,-0.5281878113746643,1.4277236461639404,-0.5313133597373962
1766,1406,0.7030819058418274,2.683661699295044,-1001.3292236328125,-0.5281878113746643,1.4277236461639404,-0.5313133597373962
1788,1406,0.7030819058418274,2.683661699295044,-1001.3292236328125,-0.5281878113746643,1.4277236461639404,-0.5313133597373962
1773,1406,0.7030819058418274,2.683661699295044,-1001.3292236328125,-0.5281878113746643,1.4277236461639404,-0.5313133597373962
1680,1406,0.7030819058418274,2.683661699295044,-1001.3292236328125,-0.5281878113746643,1.4277236461639404,-0.5313133597373962
1697,1406,0.7030819058418274,2.683661699295044,-1001.3292236328125,-0.5281878113746643,1.4277236461639404,-0.5313133597373962
1719,1406,0.7030819058418274,2.683661699295044,-1001.3292236328125,-0.5281878113746643,1.4277236461639404,-0.5313133597373962
1704,1406,0.7030819058418274,2.683661699295044,-1001.3292236328125,-0.5281878113746643,1.4277236461639404,-0.5313133597373962
1773,1407,0.6205971837043762,-3.9887049198150635,-999.8682250976562,0.11826324462890625,-0.32993578910827637,1.696040391921997
1788,1407,0.6205971837043762,-3.9887049198150635,-999.8682250976562,0.11826324462890625,-0.32993578910827637,1.696040391921997
1772,1407,0.6205971837043762,-3.9887049198150635,-999.8682250976562,0.11826324462890625,-0.32993578910827637,1.696040391921997
1778,1407,0.6205971837043762,-3.9887049198150635,-999.8682250976562,0.11826324462890625,-0.32993578910827637,1.696040391921997
1704,1407,0.6205971837043762,-3.9887049198150635,-999.8682250976562,0.11826324462890625,-0.32993578910827637,1.696040391921997
1719,1407,0.6205971837043762,-3.9887049198150635,-999.8682250976562,0.11826324462890625,-0.32993578910827637,1.696040391921997
1703,1407,0.6205971837043762,-3.9887049198150635,-999.8682250976562,0.11826324462890625,-0.32993578910827637,1.696040391921997
1709,1407,0.6205971837043762,-3.9887049198150635,-999.8682250976562,0.11826324462890625,-0.32993578910827637,1.696040391921997
1775,1408,1.371791958808899,3.9531478881835938,-999.3839721679688,0.4088481068611145,0.06453833729028702,1.9685380458831787
1763,1408,1.371791958808899,3.9531478881835938,-999.3839721679688,0.4088481068611145,0.06453833729028702,1.9685380458831787
1759,1408,1.371791958808899,3.9531478881835938,-999.3839721679688,0.4088481068611145,0.06453833729028702,1.9685380458831787
1783,1408,1.371791958808899,3.9531478881835938,-999.3839721679688,0.4088481068611145,0.06453833729028702,1.9685380458831787
1706,1408,1.371791958808899,3.9531478881835938,-999.3839721679688,0.4088481068611145,0.06453833729028702,1.9685380458831787
1694,1408,1.371791958808899,3.9531478881835938,-999.3839721679688,0.4088481068611145,0.06453833729028702,1.9685380458831787
1690,1408,1.371791958808899,3.9531478881835938,-999.3839721679688,0.4088481068611145,0.06453833729028702,1.9685380458831787
1714,1408,1.371791958808899,3.9531478881835938,-999.3839721679688,0.4088481068611145,0.06453833729028702,1.9685380458831787
1773,1409,-2.595006227493286,-3.0102860927581787,-1000.96630859375,0.9871633052825928,-1.592829704284668,-0.04209154471755028
1778,1409,-2.595006227493286,-3.0102860927581787,-1000.96630859375,0.9871633052825928,-1.592829704284668,-0.04209154471755028
1770,1409,-2.595006227493286,-3.0102860927581787,-1000.96630859375,0.9871633052825928,-1.592829704284668,-0.04209154471755028
1787,1409,-2.595006227493286,-3.0102860927581787,-1000.96630859375,0.9871633052825928,-1.592829704284668,-0.04209154471755028
1704,1409,-2.595006227493286,-3.0102860927581787,-1000.96630859375,0.9871633052825928,-1.592829704284668,-0.04209154471755028
1709,1409,-2.595006227493286,-3.0102860927581787,-1000.96630859375,0.9871633052825928,-1.592829704284668,-0.04209154471755028
1701,1409,-2.595006227493286,-3.0102860927581787,-1000.96630859375,0.9871633052825928,-1.592829704284668,-0.04209154471755028
1718,1409,-2.595006227493286,-3.0102860927581787,-1000.96630859375,0.9871633052825928,-1.592829704284668,-0.04209154471755028
1751,1410,1.1877362728118896,3.9448654651641846,-999.66064453125,-0.24753344058990479,0.37609195709228516,0.1444862335920334
1782,1410,1.1877362728118896,3.9448654651641846,-999.66064453125,-0.24753344058990479,0.37609195709228516,0.1444862335920334
1789,1410,1.1877362728118896,3.9448654651641846,-999.66064453125,-0.24753344058990479,0.37609195709228516,0.1444862335920334
1772,1410,1.1877362728118896,3.9448654651641846,-999.66064453125,-0.24753344058990479,0.37609195709228516,0.1444862335920334
1682,1410,1.1877362728118896,3.9448654651641846,-999.66064453125,-0.24753344058990479,0.37609195709228516,0.1444862335920334
1713,1410,1.1877362728118896,3.9448654651641846,-999.66064453125,-0.24753344058990479,0.37609195709228516,0.1444862335920334
1720,1410,1.1877362728118896,3.9448654651641846,-999.66064453125,-0.24753344058990479,0.37609195709228516,0.1444862335920334
1703,1410,1.1877362728118896,3.9448654651641846,-999.66064453125,-0.24753344058990479,0.37609195709228516,0.1444862335920334
1793,1411,-1.9491636753082275,-2.8133363723754883,-999.4821166992188,-0.27308133244514465,1.198510766029358,-0.9147207736968994
1775,1411,-1.9491636753082275,-2.8133363723754883,-999.4821166992188,-0.27308133244514465,1.198510766029358,-0.9147207736968994
1760,1411,-1.9491636753082275,-2.8133363723754883,-999.4821166992188,-0.27308133244514465,1.198510766029358,-0.9147207736968994
1781,1411,-1.9491636753082275,-2.8133363723754883,-999.4821166992188,-0.27308133244514465,1.198510766029358,-0.9147207736968994
1724,1411,-1.9491636753082275,-2.8133363723754883,-999.4821166992188,-0.27308133244514465,1.198510766029358,-0.9147207736968994
1706,1411,-1.9491636753082275,-2.8133363723754883,-999.4821166992188,-0.27308133244514465,1.198510766029358,-0.9147207736968994
1691,1411,-1.9491636753082275,-2.8133363723754883,-999.4821166992188,-0.27308133244514465,1.198510766029358,-0.9147207736968994
1712,1411,-1.9491636753082275,-2.8133363723754883,-999.4821166992188,-0.27308133244514465,1.198510766029358,-0.9147207736968994
1769,1412,-4.762119293212891,0.4178004562854767,-1000.59716796875,-0.3065115511417389,2.2591466903686523,0.46749213337898254
1791,1412,-4.762119293212891,0.4178004562854767,-1000.59716796875,-0.3065115511417389,2.2591466903686523,0.46749213337898254
1776,1412,-4.762119293212891,0.4178004562854767,-1000.59716796875,-0.3065115511417389,2.2591466903686523,0.46749213337898254
1780,1412,-4.762119293212891,0.4178004562854767,-1000.59716796875,-0.3065115511417389,2.2591466903686523,0.46749213337898254
1700,1412,-4.762119293212891,0.4178004562854767,-1000.59716796875,-0.3065115511417389,2.2591466903686523,0.46749213337898254
1722,1412,-4.762119293212891,0.4178004562854767,-1000.59716796875,-0.3065115511417389,2.2591466903686523,0.46749213337898254
1707,1412,-4.762119293212891,0.4178004562854767,-1000.59716796875,-0.3065115511417389,2.2591466903686523,0.46749213337898254
1711,1412,-4.762119293212891,0.4178004562854767,-1000.59716796875,-0.3065115511417389,2.2591466903686523,0.46749213337898254
1792,1413,0.3828239440917969,-0.08040225505828857,-1001.8666381835938,-2.090023994445801,-0.696164608001709,0.19212545454502106
1764,1413,0.3828239440917969,-0.08040225505828857,-1001.8666381835938,-2.090023994445801,-0.696164608001709,0.19212545454502106
1757,1413,0.3828239440917969,-0.08040225505828857,-1001.8666381835938,-2.090023994445801,-0.696164608001709,0.19212545454502106
1771,1413,0.3828239440917969,-0.08040225505828857,-1001.8666381835938,-2.090023994445801,-0.696164608001709,0.19212545454502106
1723,1413,0.3828239440917969,-0.08040225505828857,-1001.8666381835938,-2.090023994445801,-0.696164608001709,0.19212545454502106
1695,1413,0.3828239440917969,-0.08040225505828857,-1001.8666381835938,-2.090023994445801,-0.696164608001709,0.19212545454502106
1688,1413,0.3828239440917969,-0.08040225505828857,-1001.8666381835938,-2.090023994445801,-0.696164608001709,0.19212545454502106
1702,1413,0.3828239440917969,-0.08040225505828857,-1001.8666381835938,-2.090023994445801,-0.696164608001709,0.19212545454502106
1781,1414,0.607104480266571,-1.0524702072143555,-1000.1109008789062,1.2620567083358765,-0.5371313691139221,0.39275139570236206
1780,1414,0.607104480266571,-1.0524702072143555,-1000.1109008789062,1.2620567083358765,-0.5371313691139221,0.39275139570236206
1771,1414,0.607104480266571,-1.0524702072143555,-1000.1109008789062,1.2620567083358765,-0.5371313691139221,0.39275139570236206
1793,1414,0.607104480266571,-1.0524702072143555,-1000.1109008789062,1.2620567083358765,-0.5371313691139221,0.39275139570236206
1712,1414,0.607104480266571,-1.0524702072143555,-1000.1109008789062,1.2620567083358765,-0.5371313691139221,0.39275139570236206
1711,1414,0.607104480266571,-1.0524702072143555,-1000.1109008789062,1.2620567083358765,-0.5371313691139221,0.39275139570236206
1702,1414,0.607104480266571,-1.0524702072143555,-1000.1109008789062,1.2620567083358765,-0.5371313691139221,0.39275139570236206
1724,1414,0.607104480266571,-1.0524702072143555,-1000.1109008789062,1.2620567083358765,-0.5371313691139221,0.39275139570236206
1781,1415,0.9732218980789185,2.4614768028259277,-999.9054565429688,-0.025134766474366188,2.696366310119629,0.11937025189399719
1786,1415,0.9732218980789185,2.4614768028259277,-999.9054565429688,-0.025134766474366188,2.696366310119629,0.11937025189399719
1779,1415,0.9732218980789185,2.4614768028259277,-999.9054565429688,-0.025134766474366188,2.696366310119629,0.11937025189399719
1778,1415,0.9732218980789185,2.4614768028259277,-999.9054565429688,-0.025134766474366188,2.696366310119629,0.11937025189399719
1712,1415,0.9732218980789185,2.4614768028259277,-999.9054565429688,-0.025134766474366188,2.696366310119629,0.11937025189399719
1717,1415,0.9732218980789185,2.4614768028259277,-999.9054565429688,-0.025134766474366188,2.696366310119629,0.11937025189399719
1710,1415,0.9732218980789185,2.4614768028259277,-999.9054565429688,-0.025134766474366188,2.696366310119629,0.11937025189399719
1709,1415,0.9732218980789185,2.4614768028259277,-999.9054565429688,-0.025134766474366188,2.696366310119629,0.11937025189399719
1771,1416,-3.110419988632202,-2.3037726879119873,-999.709716796875,0.8054487109184265,0.926360011100769,-2.193786859512329
1780,1416,-3.110419988632202,-2.3037726879119873,-999.709716796875,0.8054487109184265,0.926360011100769,-2.193786859512329
1776,1416,-3.110419988632202,-2.3037726879119873,-999.709716796875,0.8054487109184265,0.926360011100769,-2.193786859512329
1792,1416,-3.110419988632202,-2.3037726879119873,-999.709716796875,0.8054487109184265,0.926360011100769,-2.193786859512329
1702,1416,-3.110419988632202,-2.3037726879119873,-999.709716796875,0.8054487109184265,0.926360011100769,-2.193786859512329
1711,1416,-3.110419988632202,-2.3037726879119873,-999.709716796875,0.8054487109184265,0.926360011100769,-2.193786859512329
1707,1416,-3.110419988632202,-2.3037726879119873,-999.709716796875,0.8054487109184265,0.926360011100769,-2.193786859512329
1723,1416,-3.110419988632202,-2.3037726879119873,-999.709716796875,0.8054487109184265,0.926360011100769,-2.193786859512329
1782,1417,-0.5805283188819885,-1.6106911897659302,-999.9989013671875,-0.6118897199630737,0.20628851652145386,-0.08194529265165329
1736,1417,-0.5805283188819885,-1.6106911897659302,-999.9989013671875,-0.6118897199630737,0.20628851652145386,-0.08194529265165329
1735,1417,-0.5805283188819885,-1.6106911897659302,-999.9989013671875,-0.6118897199630737,0.20628851652145386,-0.08194529265165329
1752,1417,-0.5805283188819885,-1.6106911897659302,-999.9989013671875,-0.6118897199630737,0.20628851652145386,-0.08194529265165329
1713,1417,-0.5805283188819885,-1.6106911897659302,-999.9989013671875,-0.6118897199630737,0.20628851652145386,-0.08194529265165329
1667,1417,-0.5805283188819885,-1.6106911897659302,-999.9989013671875,-0.6118897199630737,0.20628851652145386,-0.08194529265165329
1666,1417,-0.5805283188819885,-1.6106911897659302,-999.9989013671875,-0.6118897199630737,0.20628851652145386,-0.08194529265165329
1683,1417,-0.5805283188819885,-1.6106911897659302,-999.9989013671875,-0.6118897199630737,0.20628851652145386,-0.08194529265165329
1784,1418,-1.3586934804916382,-1.6404001712799072,-1000.154296875,-0.7571225762367249,-0.06908212602138519,0.08905338495969772
1727,1418,-1.3586934804916382,-1.6404001712799072,-1000.154296875,-0.7571225762367249,-0.06908212602138519,0.08905338495969772
1742,1418,-1.3586934804916382,-1.6404001712799072,-1000.154296875,-0.7571225762367249,-0.06908212602138519,0.08905338495969772
1762,1418,-1.3586934804916382,-1.6404001712799072,-1000.154296875,-0.7571225762367249,-0.06908212602138519,0.08905338495969772
1715,1418,-1.3586934804916382,-1.6404001712799072,-1000.154296875,-0.7571225762367249,-0.06908212602138519,0.08905338495969772
1658,1418,-1.3586934804916382,-1.6404001712799072,-1000.154296875,-0.7571225762367249,-0.06908212602138519,0.08905338495969772
1673,1418,-1.3586934804916382,-1.6404001712799072,-1000.154296875,-0.7571225762367249,-0.06908212602138519,0.08905338495969772
1693,1418,-1.3586934804916382,-1.6404001712799072,-1000.154296875,-0.7571225762367249,-0.06908212602138519,0.08905338495969772
1761,1419,0.0814654603600502,-0.42261505126953125,-1001.9549560546875,1.015933871269226,1.3357737064361572,-0.9858283996582031
1785,1419,0.0814654603600502,-0.42261505126953125,-1001.9549560546875,1.015933871269226,1.3357737064361572,-0.9858283996582031
1774,1419,0.0814654603600502,-0.42261505126953125,-1001.9549560546875,1.015933871269226,1.3357737064361572,-0.9858283996582031
1762,1419,0.0814654603600502,-0.42261505126953125,-1001.9549560546875,1.015933871269226,1.3357737064361572,-0.9858283996582031
1692,1419,0.0814654603600502,-0.42261505126953125,-1001.9549560546875,1.015933871269226,1.3357737064361572,-0.9858283996582031
1716,1419,0.0814654603600502,-0.42261505126953125,-1001.9549560546875,1.015933871269226,1.3357737064361572,-0.9858283996582031
1705,1419,0.0814654603600502,-0.42261505126953125,-1001.9549560546875,1.015933871269226,1.3357737064361572,-0.9858283996582031
1693,1419,0.0814654603600502,-0.42261505126953125,-1001.9549560546875,1.015933871269226,1.3357737064361572,-0.9858283996582031
1785,1420,-4.262102127075195,-2.5565152168273926,-1000.8901977539062,-0.5732153654098511,-3.0283138751983643,1.6990554332733154
1768,1420,-4.262102127075195,-2.5565152168273926,-1000.8901977539062,-0.5732153654098511,-3.0283138751983643,1.6990554332733154
1794,1420,-4.262102127075195,-2.5565152168273926,-1000.8901977539062,-0.5732153654098511,-3.0283138751983643,1.6990554332733154
1779,1420,-4.262102127075195,-2.5565152168273926,-1000.8901977539062,-0.5732153654098511,-3.0283138751983643,1.6990554332733154
1716,1420,-4.262102127075195,-2.5565152168273926,-1000.8901977539062,-0.5732153654098511,-3.0283138751983643,1.6990554332733154
1699,1420,-4.262102127075195,-2.5565152168273926,-1000.8901977539062,-0.5732153654098511,-3.0283138751983643,1.6990554332733154
1725,1420,-4.262102127075195,-2.5565152168273926,-1000.8901977539062,-0.5732153654098511,-3.0283138751983643,1.6990554332733154
1710,1420,-4.262102127075195,-2.5565152168273926,-1000.8901977539062,-0.5732153654098511,-3.0283138751983643,1.6990554332733154
1787,1421,1.2824419736862183,4.09859561920166,-997.4830932617188,-0.5108672380447388,0.024142896756529808,0.03525979071855545
1748,1421,1.2824419736862183,4.09859561920166,-997.4830932617188,-0.5108672380447388,0.024142896756529808,0.03525979071855545
1749,1421,1.2824419736862183,4.09859561920166,-997.4830932617188,-0.5108672380447388,0.024142896756529808,0.03525979071855545
1773,1421,1.2824419736862183,4.09859561920166,-997.4830932617188,-0.5108672380447388,0.024142896756529808,0.03525979071855545
1718,1421,1.2824419736862183,4.09859561920166,-997.4830932617188,-0.5108672380447388,0.024142896756529808,0.03525979071855545
1679,1421,1.2824419736862183,4.09859561920166,-997.4830932617188,-0.5108672380447388,0.024142896756529808,0.03525979071855545
1680,1421,1.2824419736862183,4.09859561920166,-997.4830932617188,-0.5108672380447388,0.024142896756529808,0.03525979071855545
1704,1421,1.2824419736862183,4.09859561920166,-997.4830932617188,-0.5108672380447388,0.024142896756529808,0.03525979071855545
1788,1422,0.34798663854599,3.34661865234375,-999.6260986328125,0.2632656395435333,-1.2263375520706177,-0.519225537776947
1766,1422,0.34798663854599,3.34661865234375,-999.6260986328125,0.2632656395435333,-1.2263375520706177,-0.519225537776947
1751,1422,0.34798663854599,3.34661865234375,-999.6260986328125,0.2632656395435333,-1.2263375520706177,-0.519225537776947
1772,1422,0.34798663854599,3.34661865234375,-999.6260986328125,0.2632656395435333,-1.2263375520706177,-0.519225537776947
1719,1422,0.34798663854599,3.34661865234375,-999.6260986328125,0.2632656395435333,-1.2263375520706177,-0.519225537776947
1697,1422,0.34798663854599,3.34661865234375,-999.6260986328125,0.2632656395435333,-1.2263375520706177,-0.519225537776947
1682,1422,0.34798663854599,3.34661865234375,-999.6260986328125,0.2632656395435333,-1.2263375520706177,-0.519225537776947
1703,1422,0.34798663854599,3.34661865234375,-999.6260986328125,0.2632656395435333,-1.2263375520706177,-0.519225537776947
1790,1423,2.3472933769226074,0.05041413754224777,-1000.4827270507812,0.19551981985569,-1.5091331005096436,-0.0803365483880043
1765,1423,2.3472933769226074,0.05041413754224777,-1000.4827270507812,0.19551981985569,-1.5091331005096436,-0.0803365483880043
1754,1423,2.3472933769226074,0.05041413754224777,-1000.4827270507812,0.19551981985569,-1.5091331005096436,-0.0803365483880043
1769,1423,2.3472933769226074,0.05041413754224777,-1000.4827270507812,0.19551981985569,-1.5091331005096436,-0.0803365483880043
1721,1423,2.3472933769226074,0.05041413754224777,-1000.4827270507812,0.19551981985569,-1.5091331005096436,-0.0803365483880043
1696,1423,2.3472933769226074,0.05041413754224777,-1000.4827270507812,0.19551981985569,-1.5091331005096436,-0.0803365483880043
1685,1423,2.3472933769226074,0.05041413754224777,-1000.4827270507812,0.19551981985569,-1.5091331005096436,-0.0803365483880043
1700,1423,2.3472933769226074,0.05041413754224777,-1000.4827270507812,0.19551981985569,-1.5091331005096436,-0.0803365483880043
1791,1424,2.684701919555664,0.06902910768985748,-1001.5985107421875,-0.589576244354248,-1.4837501049041748,0.711362361907959
1755,1424,2.684701919555664,0.06902910768985748,-1001.5985107421875,-0.589576244354248,-1.4837501049041748,0.711362361907959
1756,1424,2.684701919555664,0.06902910768985748,-1001.5985107421875,-0.589576244354248,-1.4837501049041748,0.711362361907959
1776,1424,2.684701919555664,0.06902910768985748,-1001.5985107421875,-0.589576244354248,-1.4837501049041748,0.711362361907959
1722,1424,2.684701919555664,0.06902910768985748,-1001.5985107421875,-0.589576244354248,-1.4837501049041748,0.711362361907959
1686,1424,2.684701919555664,0.06902910768985748,-1001.5985107421875,-0.589576244354248,-1.4837501049041748,0.711362361907959
1687,1424,2.684701919555664,0.06902910768985748,-1001.5985107421875,-0.589576244354248,-1.4837501049041748,0.711362361907959
1707,1424,2.684701919555664,0.06902910768985748,-1001.5985107421875,-0.589576244354248,-1.4837501049041748,0.711362361907959
1793,1425,-0.2941625416278839,0.947470486164093,-1000.8958129882812,-0.9515931606292725,-0.7328084111213684,-0.4131245017051697
1758,1425,-0.2941625416278839,0.947470486164093,-1000.8958129882812,-0.9515931606292725,-0.7328084111213684,-0.4131245017051697
1763,1425,-0.2941625416278839,0.947470486164093,-1000.8958129882812,-0.9515931606292725,-0.7328084111213684,-0.4131245017051697
1775,1425,-0.2941625416278839,0.947470486164093,-1000.8958129882812,-0.9515931606292725,-0.7328084111213684,-0.4131245017051697
1724,1425,-0.2941625416278839,0.947470486164093,-1000.8958129882812,-0.9515931606292725,-0.7328084111213684,-0.4131245017051697
1689,1425,-0.2941625416278839,0.947470486164093,-1000.8958129882812,-0.9515931606292725,-0.7328084111213684,-0.4131245017051697
1694,1425,-0.2941625416278839,0.947470486164093,-1000.8958129882812,-0.9515931606292725,-0.7328084111213684,-0.4131245017051697
1706,1425,-0.2941625416278839,0.947470486164093,-1000.8958129882812,-0.9515931606292725,-0.7328084111213684,-0.4131245017051697
1818,1426,0.43377381563186646,1.8639731407165527,-1000.404541015625,-0.353103905916214,0.5122100710868835,-0.029688555747270584
1807,1426,0.43377381563186646,1.8639731407165527,-1000.404541015625,-0.353103905916214,0.5122100710868835,-0.029688555747270584
1806,1426,0.43377381563186646,1.8639731407165527,-1000.404541015625,-0.353103905916214,0.5122100710868835,-0.029688555747270584
1835,1426,0.43377381563186646,1.8639731407165527,-1000.404541015625,-0.353103905916214,0.5122100710868835,-0.029688555747270584
1749,1426,0.43377381563186646,1.8639731407165527,-1000.404541015625,-0.353103905916214,0.5122100710868835,-0.029688555747270584
1738,1426,0.43377381563186646,1.8639731407165527,-1000.404541015625,-0.353103905916214,0.5122100710868835,-0.029688555747270584
1737,1426,0.43377381563186646,1.8639731407165527,-1000.404541015625,-0.353103905916214,0.5122100710868835,-0.029688555747270584
1766,1426,0.43377381563186646,1.8639731407165527,-1000.404541015625,-0.353103905916214,0.5122100710868835,-0.029688555747270584
1835,1427,0.4297945499420166,2.178460121154785,-1000.3369750976562,0.04727554693818092,-0.4453856348991394,-0.1690782904624939
1806,1427,0.4297945499420166,2.178460121154785,-1000.3369750976562,0.04727554693818092,-0.4453856348991394,-0.1690782904624939
1815,1427,0.4297945499420166,2.178460121154785,-1000.3369750976562,0.04727554693818092,-0.4453856348991394,-0.1690782904624939
1820,1427,0.4297945499420166,2.178460121154785,-1000.3369750976562,0.04727554693818092,-0.4453856348991394,-0.1690782904624939
1766,1427,0.4297945499420166,2.178460121154785,-1000.3369750976562,0.04727554693818092,-0.4453856348991394,-0.1690782904624939
1737,1427,0.4297945499420166,2.178460121154785,-1000.3369750976562,0.04727554693818092,-0.4453856348991394,-0.1690782904624939
1746,1427,0.4297945499420166,2.178460121154785,-1000.3369750976562,0.04727554693818092,-0.4453856348991394,-0.1690782904624939
1751,1427,0.4297945499420166,2.178460121154785,-1000.3369750976562,0.04727554693818092,-0.4453856348991394,-0.1690782904624939
1816,1428,1.7911434173583984,1.488500714302063,-999.8890380859375,-0.8897997140884399,0.2605000138282776,-0.19995535910129547
1836,1428,1.7911434173583984,1.488500714302063,-999.8890380859375,-0.8897997140884399,0.2605000138282776,-0.19995535910129547
1819,1428,1.7911434173583984,1.488500714302063,-999.8890380859375,-0.8897997140884399,0.2605000138282776,-0.19995535910129547
1809,1428,1.7911434173583984,1.488500714302063,-999.8890380859375,-0.8897997140884399,0.2605000138282776,-0.19995535910129547
1747,1428,1.7911434173583984,1.488500714302063,-999.8890380859375,-0.8897997140884399,0.2605000138282776,-0.19995535910129547
1767,1428,1.7911434173583984,1.488500714302063,-999.8890380859375,-0.8897997140884399,0.2605000138282776,-0.19995535910129547
1750,1428,1.7911434173583984,1.488500714302063,-999.8890380859375,-0.8897997140884399,0.2605000138282776,-0.19995535910129547
1740,1428,1.7911434173583984,1.488500714302063,-999.8890380859375,-0.8897997140884399,0.2605000138282776,-0.19995535910129547
1807,1429,0.5003663301467896,2.2924461364746094,-999.7863159179688,-0.37903159856796265,-0.11368730664253235,-0.06540395319461823
1818,1429,0.5003663301467896,2.2924461364746094,-999.7863159179688,-0.37903159856796265,-0.11368730664253235,-0.06540395319461823
1817,1429,0.5003663301467896,2.2924461364746094,-999.7863159179688,-0.37903159856796265,-0.11368730664253235,-0.06540395319461823
1808,1429,0.5003663301467896,2.2924461364746094,-999.7863159179688,-0.37903159856796265,-0.11368730664253235,-0.06540395319461823
1738,1429,0.5003663301467896,2.2924461364746094,-999.7863159179688,-0.37903159856796265,-0.11368730664253235,-0.06540395319461823
1749,1429,0.5003663301467896,2.2924461364746094,-999.7863159179688,-0.37903159856796265,-0.11368730664253235,-0.06540395319461823
1748,1429,0.5003663301467896,2.2924461364746094,-999.7863159179688,-0.37903159856796265,-0.11368730664253235,-0.06540395319461823
1739,1429,0.5003663301467896,2.2924461364746094,-999.7863159179688,-0.37903159856796265,-0.11368730664253235,-0.06540395319461823
1846,1430,2.1313579082489014,2.014899492263794,-999.4489135742188,1.221418023109436,-1.1634575128555298,-2.180280923843384
1859,1430,2.1313579082489014,2.014899492263794,-999.4489135742188,1.221418023109436,-1.1634575128555298,-2.180280923843384
1838,1430,2.1313579082489014,2.014899492263794,-999.4489135742188,1.221418023109436,-1.1634575128555298,-2.180280923843384
1849,1430,2.1313579082489014,2.014899492263794,-999.4489135742188,1.221418023109436,-1.1634575128555298,-2.180280923843384
1777,1430,2.1313579082489014,2.014899492263794,-999.4489135742188,1.221418023109436,-1.1634575128555298,-2.180280923843384
1790,1430,2.1313579082489014,2.014899492263794,-999.4489135742188,1.221418023109436,-1.1634575128555298,-2.180280923843384
1769,1430,2.1313579082489014,2.014899492263794,-999.4489135742188,1.221418023109436,-1.1634575128555298,-2.180280923843384
1780,1430,2.1313579082489014,2.014899492263794,-999.4489135742188,1.221418023109436,-1.1634575128555298,-2.180280923843384
1862,1431,-2.591986656188965,-3.535845994949341,-1001.4016723632812,0.3940492868423462,-0.5837860107421875,-1.0187509059906006
1840,1431,-2.591986656188965,-3.535845994949341,-1001.4016723632812,0.3940492868423462,-0.5837860107421875,-1.0187509059906006
1826,1431,-2.591986656188965,-3.535845994949341,-1001.4016723632812,0.3940492868423462,-0.5837860107421875,-1.0187509059906006
1827,1431,-2.591986656188965,-3.535845994949341,-1001.4016723632812,0.3940492868423462,-0.5837860107421875,-1.0187509059906006
1793,1431,-2.591986656188965,-3.535845994949341,-1001.4016723632812,0.3940492868423462,-0.5837860107421875,-1.0187509059906006
1771,1431,-2.591986656188965,-3.535845994949341,-1001.4016723632812,0.3940492868423462,-0.5837860107421875,-1.0187509059906006
1757,1431,-2.591986656188965,-3.535845994949341,-1001.4016723632812,0.3940492868423462,-0.5837860107421875,-1.0187509059906006
1758,1431,-2.591986656188965,-3.535845994949341,-1001.4016723632812,0.3940492868423462,-0.5837860107421875,-1.0187509059906006
1850,1432,-1.8234617710113525,-2.488513469696045,-1000.4575805664062,0.6291629672050476,1.763265609741211,0.6683424711227417
1847,1432,-1.8234617710113525,-2.488513469696045,-1000.4575805664062,0.6291629672050476,1.763265609741211,0.6683424711227417
1846,1432,-1.8234617710113525,-2.488513469696045,-1000.4575805664062,0.6291629672050476,1.763265609741211,0.6683424711227417
1849,1432,-1.8234617710113525,-2.488513469696045,-1000.4575805664062,0.6291629672050476,1.763265609741211,0.6683424711227417
1781,1432,-1.8234617710113525,-2.488513469696045,-1000.4575805664062,0.6291629672050476,1.763265609741211,0.6683424711227417
1778,1432,-1.8234617710113525,-2.488513469696045,-1000.4575805664062,0.6291629672050476,1.763265609741211,0.6683424711227417
1777,1432,-1.8234617710113525,-2.488513469696045,-1000.4575805664062,0.6291629672050476,1.763265609741211,0.6683424711227417
1780,1432,-1.8234617710113525,-2.488513469696045,-1000.4575805664062,0.6291629672050476,1.763265609741211,0.6683424711227417
1841,1433,2.465860605239868,4.095583915710449,-999.2274780273438,0.8504499793052673,-1.5712697505950928,0.5694295167922974
1858,1433,2.465860605239868,4.095583915710449,-999.2274780273438,0.8504499793052673,-1.5712697505950928,0.5694295167922974
1846,1433,2.465860605239868,4.095583915710449,-999.2274780273438,0.8504499793052673,-1.5712697505950928,0.5694295167922974
1847,1433,2.465860605239868,4.095583915710449,-999.2274780273438,0.8504499793052673,-1.5712697505950928,0.5694295167922974
1772,1433,2.465860605239868,4.095583915710449,-999.2274780273438,0.8504499793052673,-1.5712697505950928,0.5694295167922974
1789,1433,2.465860605239868,4.095583915710449,-999.2274780273438,0.8504499793052673,-1.5712697505950928,0.5694295167922974
1777,1433,2.465860605239868,4.095583915710449,-999.2274780273438,0.8504499793052673,-1.5712697505950928,0.5694295167922974
1778,1433,2.465860605239868,4.095583915710449,-999.2274780273438,0.8504499793052673,-1.5712697505950928,0.5694295167922974
1821,1434,-2.005847930908203,-1.6922663450241089,-1000.0272216796875,-1.295912742614746,-0.7476837635040283,1.333640694618225
1834,1434,-2.005847930908203,-1.6922663450241089,-1000.0272216796875,-1.295912742614746,-0.7476837635040283,1.333640694618225
1859,1434,-2.005847930908203,-1.6922663450241089,-1000.0272216796875,-1.295912742614746,-0.7476837635040283,1.333640694618225
1846,1434,-2.005847930908203,-1.6922663450241089,-1000.0272216796875,-1.295912742614746,-0.7476837635040283,1.333640694618225
1752,1434,-2.005847930908203,-1.6922663450241089,-1000.0272216796875,-1.295912742614746,-0.7476837635040283,1.333640694618225
1765,1434,-2.005847930908203,-1.6922663450241089,-1000.0272216796875,-1.295912742614746,-0.7476837635040283,1.333640694618225
1790,1434,-2.005847930908203,-1.6922663450241089,-1000.0272216796875,-1.295912742614746,-0.7476837635040283,1.333640694618225
1777,1434,-2.005847930908203,-1.6922663450241089,-1000.0272216796875,-1.295912742614746,-0.7476837635040283,1.333640694618225
1861,1435,-5.850346088409424,-2.2371020317077637,-1002.514892578125,-0.10388632863759995,0.33388134837150574,-1.4686639308929443
1845,1435,-5.850346088409424,-2.2371020317077637,-1002.514892578125,-0.10388632863759995,0.33388134837150574,-1.4686639308929443
1825,1435,-5.850346088409424,-2.2371020317077637,-1002.514892578125,-0.10388632863759995,0.33388134837150574,-1.4686639308929443
1833,1435,-5.850346088409424,-2.2371020317077637,-1002.514892578125,-0.10388632863759995,0.33388134837150574,-1.4686639308929443
1792,1435,-5.850346088409424,-2.2371020317077637,-1002.514892578125,-0.10388632863759995,0.33388134837150574,-1.4686639308929443
1776,1435,-5.850346088409424,-2.2371020317077637,-1002.514892578125,-0.10388632863759995,0.33388134837150574,-1.4686639308929443
1756,1435,-5.850346088409424,-2.2371020317077637,-1002.514892578125,-0.10388632863759995,0.33388134837150574,-1.4686639308929443
1764,1435,-5.850346088409424,-2.2371020317077637,-1002.514892578125,-0.10388632863759995,0.33388134837150574,-1.4686639308929443
1855,1436,1.9097354412078857,1.9093314409255981,-998.1050415039062,1.150830626487732,2.2892470359802246,-2.4315173625946045
1850,1436,1.9097354412078857,1.9093314409255981,-998.1050415039062,1.150830626487732,2.2892470359802246,-2.4315173625946045
1829,1436,1.9097354412078857,1.9093314409255981,-998.1050415039062,1.150830626487732,2.2892470359802246,-2.4315173625946045
1843,1436,1.9097354412078857,1.9093314409255981,-998.1050415039062,1.150830626487732,2.2892470359802246,-2.4315173625946045
1786,1436,1.9097354412078857,1.9093314409255981,-998.1050415039062,1.150830626487732,2.2892470359802246,-2.4315173625946045
1781,1436,1.9097354412078857,1.9093314409255981,-998.1050415039062,1.150830626487732,2.2892470359802246,-2.4315173625946045
1760,1436,1.9097354412078857,1.9093314409255981,-998.1050415039062,1.150830626487732,2.2892470359802246,-2.4315173625946045
1774,1436,1.9097354412078857,1.9093314409255981,-998.1050415039062,1.150830626487732,2.2892470359802246,-2.4315173625946045
1829,1437,-0.9362226724624634,-0.3665359914302826,-999.3402709960938,-1.2220704555511475,0.10481704771518707,1.6200823783874512
1844,1437,-0.9362226724624634,-0.3665359914302826,-999.3402709960938,-1.2220704555511475,0.10481704771518707,1.6200823783874512
1852,1437,-0.9362226724624634,-0.3665359914302826,-999.3402709960938,-1.2220704555511475,0.10481704771518707,1.6200823783874512
1853,1437,-0.9362226724624634,-0.3665359914302826,-999.3402709960938,-1.2220704555511475,0.10481704771518707,1.6200823783874512
1760,1437,-0.9362226724624634,-0.3665359914302826,-999.3402709960938,-1.2220704555511475,0.10481704771518707,1.6200823783874512
1775,1437,-0.9362226724624634,-0.3665359914302826,-999.3402709960938,-1.2220704555511475,0.10481704771518707,1.6200823783874512
1783,1437,-0.9362226724624634,-0.3665359914302826,-999.3402709960938,-1.2220704555511475,0.10481704771518707,1.6200823783874512
1784,1437,-0.9362226724624634,-0.3665359914302826,-999.3402709960938,-1.2220704555511475,0.10481704771518707,1.6200823783874512
1836,1438,-1.6428879499435425,-1.5722930431365967,-997.2908325195312,1.5854008197784424,-1.2551242113113403,0.26348191499710083
1817,1438,-1.6428879499435425,-1.5722930431365967,-997.2908325195312,1.5854008197784424,-1.2551242113113403,0.26348191499710083
1856,1438,-1.6428879499435425,-1.5722930431365967,-997.2908325195312,1.5854008197784424,-1.2551242113113403,0.26348191499710083
1839,1438,-1.6428879499435425,-1.5722930431365967,-997.2908325195312,1.5854008197784424,-1.2551242113113403,0.26348191499710083
1767,1438,-1.6428879499435425,-1.5722930431365967,-997.2908325195312,1.5854008197784424,-1.2551242113113403,0.26348191499710083
1748,1438,-1.6428879499435425,-1.5722930431365967,-997.2908325195312,1.5854008197784424,-1.2551242113113403,0.26348191499710083
1787,1438,-1.6428879499435425,-1.5722930431365967,-997.2908325195312,1.5854008197784424,-1.2551242113113403,0.26348191499710083
1770,1438,-1.6428879499435425,-1.5722930431365967,-997.2908325195312,1.5854008197784424,-1.2551242113113403,0.26348191499710083
1863,1439,-2.8370487689971924,-2.4714603424072266,-1002.6951904296875,1.0904994010925293,-1.0568592548370361,-0.2784109115600586
1819,1439,-2.8370487689971924,-2.4714603424072266,-1002.6951904296875,1.0904994010925293,-1.0568592548370361,-0.2784109115600586
1836,1439,-2.8370487689971924,-2.4714603424072266,-1002.6951904296875,1.0904994010925293,-1.0568592548370361,-0.2784109115600586
1839,1439,-2.8370487689971924,-2.4714603424072266,-1002.6951904296875,1.0904994010925293,-1.0568592548370361,-0.2784109115600586
1794,1439,-2.8370487689971924,-2.4714603424072266,-1002.6951904296875,1.0904994010925293,-1.0568592548370361,-0.2784109115600586
1750,1439,-2.8370487689971924,-2.4714603424072266,-1002.6951904296875,1.0904994010925293,-1.0568592548370361,-0.2784109115600586
1767,1439,-2.8370487689971924,-2.4714603424072266,-1002.6951904296875,1.0904994010925293,-1.0568592548370361,-0.2784109115600586
1770,1439,-2.8370487689971924,-2.4714603424072266,-1002.6951904296875,1.0904994010925293,-1.0568592548370361,-0.2784109115600586
1823,1440,-4.110747337341309,-1.332633376121521,-1001.4564819335938,-0.7336716055870056,1.0551726818084717,1.6961040496826172
1824,1440,-4.110747337341309,-1.332633376121521,-1001.4564819335938,-0.7336716055870056,1.0551726818084717,1.6961040496826172
1860,1440,-4.110747337341309,-1.332633376121521,-1001.4564819335938,-0.7336716055870056,1.0551726818084717,1.6961040496826172
1838,1440,-4.110747337341309,-1.332633376121521,-1001.4564819335938,-0.7336716055870056,1.0551726818084717,1.6961040496826172
1754,1440,-4.110747337341309,-1.332633376121521,-1001.4564819335938,-0.7336716055870056,1.0551726818084717,1.6961040496826172
1755,1440,-4.110747337341309,-1.332633376121521,-1001.4564819335938,-0.7336716055870056,1.0551726818084717,1.6961040496826172
1791,1440,-4.110747337341309,-1.332633376121521,-1001.4564819335938,-0.7336716055870056,1.0551726818084717,1.6961040496826172
1769,1440,-4.110747337341309,-1.332633376121521,-1001.4564819335938,-0.7336716055870056,1.0551726818084717,1.6961040496826172
1808,1441,1.0882090330123901,1.4243991374969482,-1000.5690307617188,-1.07514488697052,0.21727252006530762,0.12812604010105133
1817,1441,1.0882090330123901,1.4243991374969482,-1000.5690307617188,-1.07514488697052,0.21727252006530762,0.12812604010105133
1836,1441,1.0882090330123901,1.4243991374969482,-1000.5690307617188,-1.07514488697052,0.21727252006530762,0.12812604010105133
1816,1441,1.0882090330123901,1.4243991374969482,-1000.5690307617188,-1.07514488697052,0.21727252006530762,0.12812604010105133
1739,1441,1.0882090330123901,1.4243991374969482,-1000.5690307617188,-1.07514488697052,0.21727252006530762,0.12812604010105133
1748,1441,1.0882090330123901,1.4243991374969482,-1000.5690307617188,-1.07514488697052,0.21727252006530762,0.12812604010105133
1767,1441,1.0882090330123901,1.4243991374969482,-1000.5690307617188,-1.07514488697052,0.21727252006530762,0.12812604010105133
1747,1441,1.0882090330123901,1.4243991374969482,-1000.5690307617188,-1.07514488697052,0.21727252006530762,0.12812604010105133
1805,1442,0.6069968342781067,3.059648036956787,-999.9614868164062,-0.10169611126184464,0.1872444748878479,0.18571226298809052
1851,1442,0.6069968342781067,3.059648036956787,-999.9614868164062,-0.10169611126184464,0.1872444748878479,0.18571226298809052
1820,1442,0.6069968342781067,3.059648036956787,-999.9614868164062,-0.10169611126184464,0.1872444748878479,0.18571226298809052
1815,1442,0.6069968342781067,3.059648036956787,-999.9614868164062,-0.10169611126184464,0.1872444748878479,0.18571226298809052
1736,1442,0.6069968342781067,3.059648036956787,-999.9614868164062,-0.10169611126184464,0.1872444748878479,0.18571226298809052
1782,1442,0.6069968342781067,3.059648036956787,-999.9614868164062,-0.10169611126184464,0.1872444748878479,0.18571226298809052
1751,1442,0.6069968342781067,3.059648036956787,-999.9614868164062,-0.10169611126184464,0.1872444748878479,0.18571226298809052
1746,1442,0.6069968342781067,3.059648036956787,-999.9614868164062,-0.10169611126184464,0.1872444748878479,0.18571226298809052
1821,1443,1.5611917972564697,0.8804649114608765,-1000.2496337890625,0.7683631181716919,0.17905226349830627,-0.3595864176750183
1804,1443,1.5611917972564697,0.8804649114608765,-1000.2496337890625,0.7683631181716919,0.17905226349830627,-0.3595864176750183
1814,1443,1.5611917972564697,0.8804649114608765,-1000.2496337890625,0.7683631181716919,0.17905226349830627,-0.3595864176750183
1834,1443,1.5611917972564697,0.8804649114608765,-1000.2496337890625,0.7683631181716919,0.17905226349830627,-0.3595864176750183
1752,1443,1.5611917972564697,0.8804649114608765,-1000.2496337890625,0.7683631181716919,0.17905226349830627,-0.3595864176750183
1735,1443,1.5611917972564697,0.8804649114608765,-1000.2496337890625,0.7683631181716919,0.17905226349830627,-0.3595864176750183
1745,1443,1.5611917972564697,0.8804649114608765,-1000.2496337890625,0.7683631181716919,0.17905226349830627,-0.3595864176750183
1765,1443,1.5611917972564697,0.8804649114608765,-1000.2496337890625,0.7683631181716919,0.17905226349830627,-0.3595864176750183
1822,1444,2.960838794708252,0.4736163020133972,-1000.6046752929688,-0.3462676703929901,0.2174839824438095,0.025001993402838707
1810,1444,2.960838794708252,0.4736163020133972,-1000.6046752929688,-0.3462676703929901,0.2174839824438095,0.025001993402838707
1809,1444,2.960838794708252,0.4736163020133972,-1000.6046752929688,-0.3462676703929901,0.2174839824438095,0.025001993402838707
1819,1444,2.960838794708252,0.4736163020133972,-1000.6046752929688,-0.3462676703929901,0.2174839824438095,0.025001993402838707
1753,1444,2.960838794708252,0.4736163020133972,-1000.6046752929688,-0.3462676703929901,0.2174839824438095,0.025001993402838707
1741,1444,2.960838794708252,0.4736163020133972,-1000.6046752929688,-0.3462676703929901,0.2174839824438095,0.025001993402838707
1740,1444,2.960838794708252,0.4736163020133972,-1000.6046752929688,-0.3462676703929901,0.2174839824438095,0.025001993402838707
1750,1444,2.960838794708252,0.4736163020133972,-1000.6046752929688,-0.3462676703929901,0.2174839824438095,0.025001993402838707
1834,1445,2.2828407287597656,0.3256288468837738,-1000.2730712890625,0.3065657913684845,-0.2686169147491455,0.11286002397537231
1814,1445,2.2828407287597656,0.3256288468837738,-1000.2730712890625,0.3065657913684845,-0.2686169147491455,0.11286002397537231
1803,1445,2.2828407287597656,0.3256288468837738,-1000.2730712890625,0.3065657913684845,-0.2686169147491455,0.11286002397537231
1823,1445,2.2828407287597656,0.3256288468837738,-1000.2730712890625,0.3065657913684845,-0.2686169147491455,0.11286002397537231
1765,1445,2.2828407287597656,0.3256288468837738,-1000.2730712890625,0.3065657913684845,-0.2686169147491455,0.11286002397537231
1745,1445,2.2828407287597656,0.3256288468837738,-1000.2730712890625,0.3065657913684845,-0.2686169147491455,0.11286002397537231
1734,1445,2.2828407287597656,0.3256288468837738,-1000.2730712890625,0.3065657913684845,-0.2686169147491455,0.11286002397537231
1754,1445,2.2828407287597656,0.3256288468837738,-1000.2730712890625,0.3065657913684845,-0.2686169147491455,0.11286002397537231
1858,1446,-0.7941737771034241,-1.8914904594421387,-999.5855102539062,-1.4586913585662842,1.1562256813049316,-0.33610275387763977
1851,1446,-0.7941737771034241,-1.8914904594421387,-999.5855102539062,-1.4586913585662842,1.1562256813049316,-0.33610275387763977
1821,1446,-0.7941737771034241,-1.8914904594421387,-999.5855102539062,-1.4586913585662842,1.1562256813049316,-0.33610275387763977
1846,1446,-0.7941737771034241,-1.8914904594421387,-999.5855102539062,-1.4586913585662842,1.1562256813049316,-0.33610275387763977
1789,1446,-0.7941737771034241,-1.8914904594421387,-999.5855102539062,-1.4586913585662842,1.1562256813049316,-0.33610275387763977
1782,1446,-0.7941737771034241,-1.8914904594421387,-999.5855102539062,-1.4586913585662842,1.1562256813049316,-0.33610275387763977
1752,1446,-0.7941737771034241,-1.8914904594421387,-999.5855102539062,-1.4586913585662842,1.1562256813049316,-0.33610275387763977
1777,1446,-0.7941737771034241,-1.8914904594421387,-999.5855102539062,-1.4586913585662842,1.1562256813049316,-0.33610275387763977
1823,1447,2.002943754196167,0.5458070039749146,-1000.1577758789062,0.17232057452201843,-0.32935822010040283,-0.5682730078697205
1803,1447,2.002943754196167,0.5458070039749146,-1000.1577758789062,0.17232057452201843,-0.32935822010040283,-0.5682730078697205
1802,1447,2.002943754196167,0.5458070039749146,-1000.1577758789062,0.17232057452201843,-0.32935822010040283,-0.5682730078697205
1824,1447,2.002943754196167,0.5458070039749146,-1000.1577758789062,0.17232057452201843,-0.32935822010040283,-0.5682730078697205
1754,1447,2.002943754196167,0.5458070039749146,-1000.1577758789062,0.17232057452201843,-0.32935822010040283,-0.5682730078697205
1734,1447,2.002943754196167,0.5458070039749146,-1000.1577758789062,0.17232057452201843,-0.32935822010040283,-0.5682730078697205
1733,1447,2.002943754196167,0.5458070039749146,-1000.1577758789062,0.17232057452201843,-0.32935822010040283,-0.5682730078697205
1755,1447,2.002943754196167,0.5458070039749146,-1000.1577758789062,0.17232057452201843,-0.32935822010040283,-0.5682730078697205
1824,1448,2.142235279083252,0.2902764678001404,-1000.5338134765625,-0.1389237493276596,-0.20896846055984497,0.5451833009719849
1802,1448,2.142235279083252,0.2902764678001404,-1000.5338134765625,-0.1389237493276596,-0.20896846055984497,0.5451833009719849
1801,1448,2.142235279083252,0.2902764678001404,-1000.5338134765625,-0.1389237493276596,-0.20896846055984497,0.5451833009719849
1825,1448,2.142235279083252,0.2902764678001404,-1000.5338134765625,-0.1389237493276596,-0.20896846055984497,0.5451833009719849
1755,1448,2.142235279083252,0.2902764678001404,-1000.5338134765625,-0.1389237493276596,-0.20896846055984497,0.5451833009719849
1733,1448,2.142235279083252,0.2902764678001404,-1000.5338134765625,-0.1389237493276596,-0.20896846055984497,0.5451833009719849
1732,1448,2.142235279083252,0.2902764678001404,-1000.5338134765625,-0.1389237493276596,-0.20896846055984497,0.5451833009719849
1756,1448,2.142235279083252,0.2902764678001404,-1000.5338134765625,-0.1389237493276596,-0.20896846055984497,0.5451833009719849
1855,1449,0.332169771194458,1.8578404188156128,-1001.6771240234375,1.1097164154052734,0.09229257702827454,2.528242588043213
1843,1449,0.332169771194458,1.8578404188156128,-1001.6771240234375,1.1097164154052734,0.09229257702827454,2.528242588043213
1854,1449,0.332169771194458,1.8578404188156128,-1001.6771240234375,1.1097164154052734,0.09229257702827454,2.528242588043213
1848,1449,0.332169771194458,1.8578404188156128,-1001.6771240234375,1.1097164154052734,0.09229257702827454,2.528242588043213
1786,1449,0.332169771194458,1.8578404188156128,-1001.6771240234375,1.1097164154052734,0.09229257702827454,2.528242588043213
1774,1449,0.332169771194458,1.8578404188156128,-1001.6771240234375,1.1097164154052734,0.09229257702827454,2.528242588043213
1785,1449,0.332169771194458,1.8578404188156128,-1001.6771240234375,1.1097164154052734,0.09229257702827454,2.528242588043213
1779,1449,0.332169771194458,1.8578404188156128,-1001.6771240234375,1.1097164154052734,0.09229257702827454,2.528242588043213
1810,1450,2.7417807579040527,1.114005446434021,-999.9232177734375,0.5929743051528931,-0.009283946827054024,-0.1352219134569168
1822,1450,2.7417807579040527,1.114005446434021,-999.9232177734375,0.5929743051528931,-0.009283946827054024,-0.1352219134569168
1830,1450,2.7417807579040527,1.114005446434021,-999.9232177734375,0.5929743051528931,-0.009283946827054024,-0.1352219134569168
1795,1450,2.7417807579040527,1.114005446434021,-999.9232177734375,0.5929743051528931,-0.009283946827054024,-0.1352219134569168
1741,1450,2.7417807579040527,1.114005446434021,-999.9232177734375,0.5929743051528931,-0.009283946827054024,-0.1352219134569168
1753,1450,2.7417807579040527,1.114005446434021,-999.9232177734375,0.5929743051528931,-0.009283946827054024,-0.1352219134569168
1761,1450,2.7417807579040527,1.114005446434021,-999.9232177734375,0.5929743051528931,-0.009283946827054024,-0.1352219134569168
1726,1450,2.7417807579040527,1.114005446434021,-999.9232177734375,0.5929743051528931,-0.009283946827054024,-0.1352219134569168
1825,1451,2.888439416885376,0.7246055006980896,-999.8241577148438,-0.24120384454727173,-0.2073075771331787,-0.13346952199935913
1801,1451,2.888439416885376,0.7246055006980896,-999.8241577148438,-0.24120384454727173,-0.2073075771331787,-0.13346952199935913
1813,1451,2.888439416885376,0.7246055006980896,-999.8241577148438,-0.24120384454727173,-0.2073075771331787,-0.13346952199935913
1833,1451,2.888439416885376,0.7246055006980896,-999.8241577148438,-0.24120384454727173,-0.2073075771331787,-0.13346952199935913
1756,1451,2.888439416885376,0.7246055006980896,-999.8241577148438,-0.24120384454727173,-0.2073075771331787,-0.13346952199935913
1732,1451,2.888439416885376,0.7246055006980896,-999.8241577148438,-0.24120384454727173,-0.2073075771331787,-0.13346952199935913
1744,1451,2.888439416885376,0.7246055006980896,-999.8241577148438,-0.24120384454727173,-0.2073075771331787,-0.13346952199935913
1764,1451,2.888439416885376,0.7246055006980896,-999.8241577148438,-0.24120384454727173,-0.2073075771331787,-0.13346952199935913
1833,1452,1.6699614524841309,0.6880553960800171,-1000.717529296875,-1.0276622772216797,-0.010970352217555046,0.4630880355834961
1813,1452,1.6699614524841309,0.6880553960800171,-1000.717529296875,-1.0276622772216797,-0.010970352217555046,0.4630880355834961
1800,1452,1.6699614524841309,0.6880553960800171,-1000.717529296875,-1.0276622772216797,-0.010970352217555046,0.4630880355834961
1826,1452,1.6699614524841309,0.6880553960800171,-1000.717529296875,-1.0276622772216797,-0.010970352217555046,0.4630880355834961
1764,1452,1.6699614524841309,0.6880553960800171,-1000.717529296875,-1.0276622772216797,-0.010970352217555046,0.4630880355834961
1744,1452,1.6699614524841309,0.6880553960800171,-1000.717529296875,-1.0276622772216797,-0.010970352217555046,0.4630880355834961
1731,1452,1.6699614524841309,0.6880553960800171,-1000.717529296875,-1.0276622772216797,-0.010970352217555046,0.4630880355834961
1757,1452,1.6699614524841309,0.6880553960800171,-1000.717529296875,-1.0276622772216797,-0.010970352217555046,0.4630880355834961
1826,1453,1.4301526546478271,2.020660877227783,-999.8108520507812,-0.8658245205879211,-0.028828272596001625,-0.15869289636611938
1800,1453,1.4301526546478271,2.020660877227783,-999.8108520507812,-0.8658245205879211,-0.028828272596001625,-0.15869289636611938
1799,1453,1.4301526546478271,2.020660877227783,-999.8108520507812,-0.8658245205879211,-0.028828272596001625,-0.15869289636611938
1827,1453,1.4301526546478271,2.020660877227783,-999.8108520507812,-0.8658245205879211,-0.028828272596001625,-0.15869289636611938
1757,1453,1.4301526546478271,2.020660877227783,-999.8108520507812,-0.8658245205879211,-0.028828272596001625,-0.15869289636611938
1731,1453,1.4301526546478271,2.020660877227783,-999.8108520507812,-0.8658245205879211,-0.028828272596001625,-0.15869289636611938
1730,1453,1.4301526546478271,2.020660877227783,-999.8108520507812,-0.8658245205879211,-0.028828272596001625,-0.15869289636611938
1758,1453,1.4301526546478271,2.020660877227783,-999.8108520507812,-0.8658245205879211,-0.028828272596001625,-0.15869289636611938
1827,1454,0.570449948310852,2.364715099334717,-1000.5684204101562,-0.41725024580955505,-0.04523416608572006,0.09438147395849228
1799,1454,0.570449948310852,2.364715099334717,-1000.5684204101562,-0.41725024580955505,-0.04523416608572006,0.09438147395849228
1812,1454,0.570449948310852,2.364715099334717,-1000.5684204101562,-0.41725024580955505,-0.04523416608572006,0.09438147395849228
1832,1454,0.570449948310852,2.364715099334717,-1000.5684204101562,-0.41725024580955505,-0.04523416608572006,0.09438147395849228
1758,1454,0.570449948310852,2.364715099334717,-1000.5684204101562,-0.41725024580955505,-0.04523416608572006,0.09438147395849228
1730,1454,0.570449948310852,2.364715099334717,-1000.5684204101562,-0.41725024580955505,-0.04523416608572006,0.09438147395849228
1743,1454,0.570449948310852,2.364715099334717,-1000.5684204101562,-0.41725024580955505,-0.04523416608572006,0.09438147395849228
1763,1454,0.570449948310852,2.364715099334717,-1000.5684204101562,-0.41725024580955505,-0.04523416608572006,0.09438147395849228
1832,1455,0.9051936864852905,3.4176700115203857,-999.8975219726562,-0.1829589605331421,-0.24234022200107574,0.505037784576416
1812,1455,0.9051936864852905,3.4176700115203857,-999.8975219726562,-0.1829589605331421,-0.24234022200107574,0.505037784576416
1798,1455,0.9051936864852905,3.4176700115203857,-999.8975219726562,-0.1829589605331421,-0.24234022200107574,0.505037784576416
1828,1455,0.9051936864852905,3.4176700115203857,-999.8975219726562,-0.1829589605331421,-0.24234022200107574,0.505037784576416
1763,1455,0.9051936864852905,3.4176700115203857,-999.8975219726562,-0.1829589605331421,-0.24234022200107574,0.505037784576416
1743,1455,0.9051936864852905,3.4176700115203857,-999.8975219726562,-0.1829589605331421,-0.24234022200107574,0.505037784576416
1729,1455,0.9051936864852905,3.4176700115203857,-999.8975219726562,-0.1829589605331421,-0.24234022200107574,0.505037784576416
1759,1455,0.9051936864852905,3.4176700115203857,-999.8975219726562,-0.1829589605331421,-0.24234022200107574,0.505037784576416
1852,1456,1.0753387212753296,1.7337535619735718,-999.9366455078125,0.6694705486297607,-0.23113423585891724,-0.26348912715911865
1797,1456,1.0753387212753296,1.7337535619735718,-999.9366455078125,0.6694705486297607,-0.23113423585891724,-0.26348912715911865
1796,1456,1.0753387212753296,1.7337535619735718,-999.9366455078125,0.6694705486297607,-0.23113423585891724,-0.26348912715911865
1853,1456,1.0753387212753296,1.7337535619735718,-999.9366455078125,0.6694705486297607,-0.23113423585891724,-0.26348912715911865
1783,1456,1.0753387212753296,1.7337535619735718,-999.9366455078125,0.6694705486297607,-0.23113423585891724,-0.26348912715911865
1728,1456,1.0753387212753296,1.7337535619735718,-999.9366455078125,0.6694705486297607,-0.23113423585891724,-0.26348912715911865
1727,1456,1.0753387212753296,1.7337535619735718,-999.9366455078125,0.6694705486297607,-0.23113423585891724,-0.26348912715911865
1784,1456,1.0753387212753296,1.7337535619735718,-999.9366455078125,0.6694705486297607,-0.23113423585891724,-0.26348912715911865
1831,1457,1.4808406829833984,0.7841136455535889,-1000.4459228515625,0.7315871119499207,0.29462698101997375,0.05568867176771164
1811,1457,1.4808406829833984,0.7841136455535889,-1000.4459228515625,0.7315871119499207,0.29462698101997375,0.05568867176771164
1795,1457,1.4808406829833984,0.7841136455535889,-1000.4459228515625,0.7315871119499207,0.29462698101997375,0.05568867176771164
1830,1457,1.4808406829833984,0.7841136455535889,-1000.4459228515625,0.7315871119499207,0.29462698101997375,0.05568867176771164
1762,1457,1.4808406829833984,0.7841136455535889,-1000.4459228515625,0.7315871119499207,0.29462698101997375,0.05568867176771164
1742,1457,1.4808406829833984,0.7841136455535889,-1000.4459228515625,0.7315871119499207,0.29462698101997375,0.05568867176771164
1726,1457,1.4808406829833984,0.7841136455535889,-1000.4459228515625,0.7315871119499207,0.29462698101997375,0.05568867176771164
1761,1457,1.4808406829833984,0.7841136455535889,-1000.4459228515625,0.7315871119499207,0.29462698101997375,0.05568867176771164
1854,1458,-5.2790985107421875,-3.633793354034424,-1003.2822265625,-1.0906596183776855,-0.24832789599895477,-1.3278268575668335
1830,1458,-5.2790985107421875,-3.633793354034424,-1003.2822265625,-1.0906596183776855,-0.24832789599895477,-1.3278268575668335
1822,1458,-5.2790985107421875,-3.633793354034424,-1003.2822265625,-1.0906596183776855,-0.24832789599895477,-1.3278268575668335
1837,1458,-5.2790985107421875,-3.633793354034424,-1003.2822265625,-1.0906596183776855,-0.24832789599895477,-1.3278268575668335
1785,1458,-5.2790985107421875,-3.633793354034424,-1003.2822265625,-1.0906596183776855,-0.24832789599895477,-1.3278268575668335
1761,1458,-5.2790985107421875,-3.633793354034424,-1003.2822265625,-1.0906596183776855,-0.24832789599895477,-1.3278268575668335
1753,1458,-5.2790985107421875,-3.633793354034424,-1003.2822265625,-1.0906596183776855,-0.24832789599895477,-1.3278268575668335
1768,1458,-5.2790985107421875,-3.633793354034424,-1003.2822265625,-1.0906596183776855,-0.24832789599895477,-1.3278268575668335
1853,1459,-2.8027243614196777,-3.8874101638793945,-1001.6174926757812,-0.6058191061019897,0.1143505871295929,-1.0972261428833008
1831,1459,-2.8027243614196777,-3.8874101638793945,-1001.6174926757812,-0.6058191061019897,0.1143505871295929,-1.0972261428833008
1843,1459,-2.8027243614196777,-3.8874101638793945,-1001.6174926757812,-0.6058191061019897,0.1143505871295929,-1.0972261428833008
1829,1459,-2.8027243614196777,-3.8874101638793945,-1001.6174926757812,-0.6058191061019897,0.1143505871295929,-1.0972261428833008
1784,1459,-2.8027243614196777,-3.8874101638793945,-1001.6174926757812,-0.6058191061019897,0.1143505871295929,-1.0972261428833008
1762,1459,-2.8027243614196777,-3.8874101638793945,-1001.6174926757812,-0.6058191061019897,0.1143505871295929,-1.0972261428833008
1774,1459,-2.8027243614196777,-3.8874101638793945,-1001.6174926757812,-0.6058191061019897,0.1143505871295929,-1.0972261428833008
1760,1459,-2.8027243614196777,-3.8874101638793945,-1001.6174926757812,-0.6058191061019897,0.1143505871295929,-1.0972261428833008
1828,1460,0.6085184812545776,2.4143292903900146,-1000.522216796875,0.7025644183158875,0.2917456328868866,0.42431163787841797
1798,1460,0.6085184812545776,2.4143292903900146,-1000.522216796875,0.7025644183158875,0.2917456328868866,0.42431163787841797
1797,1460,0.6085184812545776,2.4143292903900146,-1000.522216796875,0.7025644183158875,0.2917456328868866,0.42431163787841797
1852,1460,0.6085184812545776,2.4143292903900146,-1000.522216796875,0.7025644183158875,0.2917456328868866,0.42431163787841797
1759,1460,0.6085184812545776,2.4143292903900146,-1000.522216796875,0.7025644183158875,0.2917456328868866,0.42431163787841797
1729,1460,0.6085184812545776,2.4143292903900146,-1000.522216796875,0.7025644183158875,0.2917456328868866,0.42431163787841797
1728,1460,0.6085184812545776,2.4143292903900146,-1000.522216796875,0.7025644183158875,0.2917456328868866,0.42431163787841797
1783,1460,0.6085184812545776,2.4143292903900146,-1000.522216796875,0.7025644183158875,0.2917456328868866,0.42431163787841797
1837,1461,-2.793895721435547,0.32309266924858093,-996.5220947265625,0.6838273406028748,-1.710693597793579,1.8607077598571777
1822,1461,-2.793895721435547,0.32309266924858093,-996.5220947265625,0.6838273406028748,-1.710693597793579,1.8607077598571777
1819,1461,-2.793895721435547,0.32309266924858093,-996.5220947265625,0.6838273406028748,-1.710693597793579,1.8607077598571777
1863,1461,-2.793895721435547,0.32309266924858093,-996.5220947265625,0.6838273406028748,-1.710693597793579,1.8607077598571777
1768,1461,-2.793895721435547,0.32309266924858093,-996.5220947265625,0.6838273406028748,-1.710693597793579,1.8607077598571777
1753,1461,-2.793895721435547,0.32309266924858093,-996.5220947265625,0.6838273406028748,-1.710693597793579,1.8607077598571777
1750,1461,-2.793895721435547,0.32309266924858093,-996.5220947265625,0.6838273406028748,-1.710693597793579,1.8607077598571777
1794,1461,-2.793895721435547,0.32309266924858093,-996.5220947265625,0.6838273406028748,-1.710693597793579,1.8607077598571777
1848,1462,0.556181788444519,-0.38280919194221497,-1000.3441772460938,-1.5150848627090454,0.1587197333574295,0.32443472743034363
1863,1462,0.556181788444519,-0.38280919194221497,-1000.3441772460938,-1.5150848627090454,0.1587197333574295,0.32443472743034363
1839,1462,0.556181788444519,-0.38280919194221497,-1000.3441772460938,-1.5150848627090454,0.1587197333574295,0.32443472743034363
1847,1462,0.556181788444519,-0.38280919194221497,-1000.3441772460938,-1.5150848627090454,0.1587197333574295,0.32443472743034363
1779,1462,0.556181788444519,-0.38280919194221497,-1000.3441772460938,-1.5150848627090454,0.1587197333574295,0.32443472743034363
1794,1462,0.556181788444519,-0.38280919194221497,-1000.3441772460938,-1.5150848627090454,0.1587197333574295,0.32443472743034363
1770,1462,0.556181788444519,-0.38280919194221497,-1000.3441772460938,-1.5150848627090454,0.1587197333574295,0.32443472743034363
1778,1462,0.556181788444519,-0.38280919194221497,-1000.3441772460938,-1.5150848627090454,0.1587197333574295,0.32443472743034363
1818,1463,-1.1302093267440796,-3.4835736751556396,-998.5950317382812,0.5720726251602173,-1.992422103881836,0.9796425104141235
1835,1463,-1.1302093267440796,-3.4835736751556396,-998.5950317382812,0.5720726251602173,-1.992422103881836,0.9796425104141235
1857,1463,-1.1302093267440796,-3.4835736751556396,-998.5950317382812,0.5720726251602173,-1.992422103881836,0.9796425104141235
1842,1463,-1.1302093267440796,-3.4835736751556396,-998.5950317382812,0.5720726251602173,-1.992422103881836,0.9796425104141235
1749,1463,-1.1302093267440796,-3.4835736751556396,-998.5950317382812,0.5720726251602173,-1.992422103881836,0.9796425104141235
1766,1463,-1.1302093267440796,-3.4835736751556396,-998.5950317382812,0.5720726251602173,-1.992422103881836,0.9796425104141235
1788,1463,-1.1302093267440796,-3.4835736751556396,-998.5950317382812,0.5720726251602173,-1.992422103881836,0.9796425104141235
1773,1463,-1.1302093267440796,-3.4835736751556396,-998.5950317382812,0.5720726251602173,-1.992422103881836,0.9796425104141235
1842,1464,-0.6197102665901184,4.838259696960449,-999.7615966796875,-0.17570975422859192,0.39493122696876526,-2.0262789726257324
1857,1464,-0.6197102665901184,4.838259696960449,-999.7615966796875,-0.17570975422859192,0.39493122696876526,-2.0262789726257324
1841,1464,-0.6197102665901184,4.838259696960449,-999.7615966796875,-0.17570975422859192,0.39493122696876526,-2.0262789726257324
1847,1464,-0.6197102665901184,4.838259696960449,-999.7615966796875,-0.17570975422859192,0.39493122696876526,-2.0262789726257324
1773,1464,-0.6197102665901184,4.838259696960449,-999.7615966796875,-0.17570975422859192,0.39493122696876526,-2.0262789726257324
1788,1464,-0.6197102665901184,4.838259696960449,-999.7615966796875,-0.17570975422859192,0.39493122696876526,-2.0262789726257324
1772,1464,-0.6197102665901184,4.838259696960449,-999.7615966796875,-0.17570975422859192,0.39493122696876526,-2.0262789726257324
1778,1464,-0.6197102665901184,4.838259696960449,-999.7615966796875,-0.17570975422859192,0.39493122696876526,-2.0262789726257324
1844,1465,-1.8232558965682983,-5.030226707458496,-1000.8602905273438,-0.454616904258728,-0.21311095356941223,-2.921262741088867
1832,1465,-1.8232558965682983,-5.030226707458496,-1000.8602905273438,-0.454616904258728,-0.21311095356941223,-2.921262741088867
1828,1465,-1.8232558965682983,-5.030226707458496,-1000.8602905273438,-0.454616904258728,-0.21311095356941223,-2.921262741088867
1852,1465,-1.8232558965682983,-5.030226707458496,-1000.8602905273438,-0.454616904258728,-0.21311095356941223,-2.921262741088867
1775,1465,-1.8232558965682983,-5.030226707458496,-1000.8602905273438,-0.454616904258728,-0.21311095356941223,-2.921262741088867
1763,1465,-1.8232558965682983,-5.030226707458496,-1000.8602905273438,-0.454616904258728,-0.21311095356941223,-2.921262741088867
1759,1465,-1.8232558965682983,-5.030226707458496,-1000.8602905273438,-0.454616904258728,-0.21311095356941223,-2.921262741088867
1783,1465,-1.8232558965682983,-5.030226707458496,-1000.8602905273438,-0.454616904258728,-0.21311095356941223,-2.921262741088867
1842,1466,3.0557000637054443,3.52643084526062,-998.2687377929688,-1.3131375312805176,2.0876827239990234,0.1236802265048027
1847,1466,3.0557000637054443,3.52643084526062,-998.2687377929688,-1.3131375312805176,2.0876827239990234,0.1236802265048027
1839,1466,3.0557000637054443,3.52643084526062,-998.2687377929688,-1.3131375312805176,2.0876827239990234,0.1236802265048027
1856,1466,3.0557000637054443,3.52643084526062,-998.2687377929688,-1.3131375312805176,2.0876827239990234,0.1236802265048027
1773,1466,3.0557000637054443,3.52643084526062,-998.2687377929688,-1.3131375312805176,2.0876827239990234,0.1236802265048027
1778,1466,3.0557000637054443,3.52643084526062,-998.2687377929688,-1.3131375312805176,2.0876827239990234,0.1236802265048027
1770,1466,3.0557000637054443,3.52643084526062,-998.2687377929688,-1.3131375312805176,2.0876827239990234,0.1236802265048027
1787,1466,3.0557000637054443,3.52643084526062,-998.2687377929688,-1.3131375312805176,2.0876827239990234,0.1236802265048027
1820,1467,-1.5434268712997437,-4.5654497146606445,-1000.5213012695312,0.16399620473384857,-0.3570902943611145,-0.034893181174993515
1851,1467,-1.5434268712997437,-4.5654497146606445,-1000.5213012695312,0.16399620473384857,-0.3570902943611145,-0.034893181174993515
1858,1467,-1.5434268712997437,-4.5654497146606445,-1000.5213012695312,0.16399620473384857,-0.3570902943611145,-0.034893181174993515
1841,1467,-1.5434268712997437,-4.5654497146606445,-1000.5213012695312,0.16399620473384857,-0.3570902943611145,-0.034893181174993515
1751,1467,-1.5434268712997437,-4.5654497146606445,-1000.5213012695312,0.16399620473384857,-0.3570902943611145,-0.034893181174993515
1782,1467,-1.5434268712997437,-4.5654497146606445,-1000.5213012695312,0.16399620473384857,-0.3570902943611145,-0.034893181174993515
1789,1467,-1.5434268712997437,-4.5654497146606445,-1000.5213012695312,0.16399620473384857,-0.3570902943611145,-0.034893181174993515
1772,1467,-1.5434268712997437,-4.5654497146606445,-1000.5213012695312,0.16399620473384857,-0.3570902943611145,-0.034893181174993515
1862,1468,2.258532762527466,3.4738502502441406,-1000.1653442382812,0.25930240750312805,-1.4383890628814697,0.8781182765960693
1844,1468,2.258532762527466,3.4738502502441406,-1000.1653442382812,0.25930240750312805,-1.4383890628814697,0.8781182765960693
1829,1468,2.258532762527466,3.4738502502441406,-1000.1653442382812,0.25930240750312805,-1.4383890628814697,0.8781182765960693
1850,1468,2.258532762527466,3.4738502502441406,-1000.1653442382812,0.25930240750312805,-1.4383890628814697,0.8781182765960693
1793,1468,2.258532762527466,3.4738502502441406,-1000.1653442382812,0.25930240750312805,-1.4383890628814697,0.8781182765960693
1775,1468,2.258532762527466,3.4738502502441406,-1000.1653442382812,0.25930240750312805,-1.4383890628814697,0.8781182765960693
1760,1468,2.258532762527466,3.4738502502441406,-1000.1653442382812,0.25930240750312805,-1.4383890628814697,0.8781182765960693
1781,1468,2.258532762527466,3.4738502502441406,-1000.1653442382812,0.25930240750312805,-1.4383890628814697,0.8781182765960693
1838,1469,5.473037242889404,-0.41308727860450745,-998.9171752929688,0.33734074234962463,-2.816054344177246,-0.6071341037750244
1860,1469,5.473037242889404,-0.41308727860450745,-998.9171752929688,0.33734074234962463,-2.816054344177246,-0.6071341037750244
1845,1469,5.473037242889404,-0.41308727860450745,-998.9171752929688,0.33734074234962463,-2.816054344177246,-0.6071341037750244
1849,1469,5.473037242889404,-0.41308727860450745,-998.9171752929688,0.33734074234962463,-2.816054344177246,-0.6071341037750244
1769,1469,5.473037242889404,-0.41308727860450745,-998.9171752929688,0.33734074234962463,-2.816054344177246,-0.6071341037750244
1791,1469,5.473037242889404,-0.41308727860450745,-998.9171752929688,0.33734074234962463,-2.816054344177246,-0.6071341037750244
1776,1469,5.473037242889404,-0.41308727860450745,-998.9171752929688,0.33734074234962463,-2.816054344177246,-0.6071341037750244
1780,1469,5.473037242889404,-0.41308727860450745,-998.9171752929688,0.33734074234962463,-2.816054344177246,-0.6071341037750244
1861,1470,-0.690005898475647,-0.3118850886821747,-997.5089721679688,2.279078722000122,1.2188353538513184,-0.41951099038124084
1833,1470,-0.690005898475647,-0.3118850886821747,-997.5089721679688,2.279078722000122,1.2188353538513184,-0.41951099038124084
1826,1470,-0.690005898475647,-0.3118850886821747,-997.5089721679688,2.279078722000122,1.2188353538513184,-0.41951099038124084
1840,1470,-0.690005898475647,-0.3118850886821747,-997.5089721679688,2.279078722000122,1.2188353538513184,-0.41951099038124084
1792,1470,-0.690005898475647,-0.3118850886821747,-997.5089721679688,2.279078722000122,1.2188353538513184,-0.41951099038124084
1764,1470,-0.690005898475647,-0.3118850886821747,-997.5089721679688,2.279078722000122,1.2188353538513184,-0.41951099038124084
1757,1470,-0.690005898475647,-0.3118850886821747,-997.5089721679688,2.279078722000122,1.2188353538513184,-0.41951099038124084
1771,1470,-0.690005898475647,-0.3118850886821747,-997.5089721679688,2.279078722000122,1.2188353538513184,-0.41951099038124084
1850,1471,-0.7164697647094727,1.133009433746338,-999.3606567382812,-1.5177006721496582,0.7316614985466003,-0.6698196530342102
1849,1471,-0.7164697647094727,1.133009433746338,-999.3606567382812,-1.5177006721496582,0.7316614985466003,-0.6698196530342102
1840,1471,-0.7164697647094727,1.133009433746338,-999.3606567382812,-1.5177006721496582,0.7316614985466003,-0.6698196530342102
1862,1471,-0.7164697647094727,1.133009433746338,-999.3606567382812,-1.5177006721496582,0.7316614985466003,-0.6698196530342102
1781,1471,-0.7164697647094727,1.133009433746338,-999.3606567382812,-1.5177006721496582,0.7316614985466003,-0.6698196530342102
1780,1471,-0.7164697647094727,1.133009433746338,-999.3606567382812,-1.5177006721496582,0.7316614985466003,-0.6698196530342102
1771,1471,-0.7164697647094727,1.133009433746338,-999.3606567382812,-1.5177006721496582,0.7316614985466003,-0.6698196530342102
1793,1471,-0.7164697647094727,1.133009433746338,-999.3606567382812,-1.5177006721496582,0.7316614985466003,-0.6698196530342102
1850,1472,-1.4526556730270386,-3.0034072399139404,-999.4469604492188,-0.022268075495958328,-3.528593063354492,-0.11568286269903183
1855,1472,-1.4526556730270386,-3.0034072399139404,-999.4469604492188,-0.022268075495958328,-3.528593063354492,-0.11568286269903183
1848,1472,-1.4526556730270386,-3.0034072399139404,-999.4469604492188,-0.022268075495958328,-3.528593063354492,-0.11568286269903183
1847,1472,-1.4526556730270386,-3.0034072399139404,-999.4469604492188,-0.022268075495958328,-3.528593063354492,-0.11568286269903183
1781,1472,-1.4526556730270386,-3.0034072399139404,-999.4469604492188,-0.022268075495958328,-3.528593063354492,-0.11568286269903183
1786,1472,-1.4526556730270386,-3.0034072399139404,-999.4469604492188,-0.022268075495958328,-3.528593063354492,-0.11568286269903183
1779,1472,-1.4526556730270386,-3.0034072399139404,-999.4469604492188,-0.022268075495958328,-3.528593063354492,-0.11568286269903183
1778,1472,-1.4526556730270386,-3.0034072399139404,-999.4469604492188,-0.022268075495958328,-3.528593063354492,-0.11568286269903183
1840,1473,3.6824965476989746,2.731632709503174,-999.8953857421875,-0.940933883190155,-0.8606040477752686,2.863834857940674
1849,1473,3.6824965476989746,2.731632709503174,-999.8953857421875,-0.940933883190155,-0.8606040477752686,2.863834857940674
1845,1473,3.6824965476989746,2.731632709503174,-999.8953857421875,-0.940933883190155,-0.8606040477752686,2.863834857940674
1861,1473,3.6824965476989746,2.731632709503174,-999.8953857421875,-0.940933883190155,-0.8606040477752686,2.863834857940674
1771,1473,3.6824965476989746,2.731632709503174,-999.8953857421875,-0.940933883190155,-0.8606040477752686,2.863834857940674
1780,1473,3.6824965476989746,2.731632709503174,-999.8953857421875,-0.940933883190155,-0.8606040477752686,2.863834857940674
1776,1473,3.6824965476989746,2.731632709503174,-999.8953857421875,-0.940933883190155,-0.8606040477752686,2.863834857940674
1792,1473,3.6824965476989746,2.731632709503174,-999.8953857421875,-0.940933883190155,-0.8606040477752686,2.863834857940674
1851,1474,0.5906292796134949,1.7119464874267578,-1000.3416137695312,0.7876324653625488,-0.20090435445308685,0.1728868931531906
1805,1474,0.5906292796134949,1.7119464874267578,-1000.3416137695312,0.7876324653625488,-0.20090435445308685,0.1728868931531906
1804,1474,0.5906292796134949,1.7119464874267578,-1000.3416137695312,0.7876324653625488,-0.20090435445308685,0.1728868931531906
1821,1474,0.5906292796134949,1.7119464874267578,-1000.3416137695312,0.7876324653625488,-0.20090435445308685,0.1728868931531906
1782,1474,0.5906292796134949,1.7119464874267578,-1000.3416137695312,0.7876324653625488,-0.20090435445308685,0.1728868931531906
1736,1474,0.5906292796134949,1.7119464874267578,-1000.3416137695312,0.7876324653625488,-0.20090435445308685,0.1728868931531906
1735,1474,0.5906292796134949,1.7119464874267578,-1000.3416137695312,0.7876324653625488,-0.20090435445308685,0.1728868931531906
1752,1474,0.5906292796134949,1.7119464874267578,-1000.3416137695312,0.7876324653625488,-0.20090435445308685,0.1728868931531906
1853,1475,1.5173308849334717,1.6558624505996704,-1000.1168823242188,0.8947261571884155,-0.08060407638549805,-0.1536184400320053
1796,1475,1.5173308849334717,1.6558624505996704,-1000.1168823242188,0.8947261571884155,-0.08060407638549805,-0.1536184400320053
1811,1475,1.5173308849334717,1.6558624505996704,-1000.1168823242188,0.8947261571884155,-0.08060407638549805,-0.1536184400320053
1831,1475,1.5173308849334717,1.6558624505996704,-1000.1168823242188,0.8947261571884155,-0.08060407638549805,-0.1536184400320053
1784,1475,1.5173308849334717,1.6558624505996704,-1000.1168823242188,0.8947261571884155,-0.08060407638549805,-0.1536184400320053
1727,1475,1.5173308849334717,1.6558624505996704,-1000.1168823242188,0.8947261571884155,-0.08060407638549805,-0.1536184400320053
1742,1475,1.5173308849334717,1.6558624505996704,-1000.1168823242188,0.8947261571884155,-0.08060407638549805,-0.1536184400320053
1762,1475,1.5173308849334717,1.6558624505996704,-1000.1168823242188,0.8947261571884155,-0.08060407638549805,-0.1536184400320053
1830,1476,-0.4763515293598175,0.25563937425613403,-997.4078369140625,-1.146321415901184,-1.878855586051941,1.2246683835983276
1854,1476,-0.4763515293598175,0.25563937425613403,-997.4078369140625,-1.146321415901184,-1.878855586051941,1.2246683835983276
1843,1476,-0.4763515293598175,0.25563937425613403,-997.4078369140625,-1.146321415901184,-1.878855586051941,1.2246683835983276
1831,1476,-0.4763515293598175,0.25563937425613403,-997.4078369140625,-1.146321415901184,-1.878855586051941,1.2246683835983276
1761,1476,-0.4763515293598175,0.25563937425613403,-997.4078369140625,-1.146321415901184,-1.878855586051941,1.2246683835983276
1785,1476,-0.4763515293598175,0.25563937425613403,-997.4078369140625,-1.146321415901184,-1.878855586051941,1.2246683835983276
1774,1476,-0.4763515293598175,0.25563937425613403,-997.4078369140625,-1.146321415901184,-1.878855586051941,1.2246683835983276
1762,1476,-0.4763515293598175,0.25563937425613403,-997.4078369140625,-1.146321415901184,-1.878855586051941,1.2246683835983276
1854,1477,5.237246990203857,3.060532569885254,-998.42529296875,0.539131760597229,3.5656540393829346,-2.184749126434326
1837,1477,5.237246990203857,3.060532569885254,-998.42529296875,0.539131760597229,3.5656540393829346,-2.184749126434326
1863,1477,5.237246990203857,3.060532569885254,-998.42529296875,0.539131760597229,3.5656540393829346,-2.184749126434326
1848,1477,5.237246990203857,3.060532569885254,-998.42529296875,0.539131760597229,3.5656540393829346,-2.184749126434326
1785,1477,5.237246990203857,3.060532569885254,-998.42529296875,0.539131760597229,3.5656540393829346,-2.184749126434326
1768,1477,5.237246990203857,3.060532569885254,-998.42529296875,0.539131760597229,3.5656540393829346,-2.184749126434326
1794,1477,5.237246990203857,3.060532569885254,-998.42529296875,0.539131760597229,3.5656540393829346,-2.184749126434326
1779,1477,5.237246990203857,3.060532569885254,-998.42529296875,0.539131760597229,3.5656540393829346,-2.184749126434326
1856,1478,-1.6766782999038696,-4.7052412033081055,-1003.0059814453125,0.7587426900863647,-0.14231935143470764,0.3574722409248352
1817,1478,-1.6766782999038696,-4.7052412033081055,-1003.0059814453125,0.7587426900863647,-0.14231935143470764,0.3574722409248352
1818,1478,-1.6766782999038696,-4.7052412033081055,-1003.0059814453125,0.7587426900863647,-0.14231935143470764,0.3574722409248352
1842,1478,-1.6766782999038696,-4.7052412033081055,-1003.0059814453125,0.7587426900863647,-0.14231935143470764,0.3574722409248352
1787,1478,-1.6766782999038696,-4.7052412033081055,-1003.0059814453125,0.7587426900863647,-0.14231935143470764,0.3574722409248352
1748,1478,-1.6766782999038696,-4.7052412033081055,-1003.0059814453125,0.7587426900863647,-0.14231935143470764,0.3574722409248352
1749,1478,-1.6766782999038696,-4.7052412033081055,-1003.0059814453125,0.7587426900863647,-0.14231935143470764,0.3574722409248352
1773,1478,-1.6766782999038696,-4.7052412033081055,-1003.0059814453125,0.7587426900863647,-0.14231935143470764,0.3574722409248352
1857,1479,-0.591098964214325,-4.002496719360352,-1000.2379760742188,-0.26463133096694946,1.5896375179290771,1.0255920886993408
1835,1479,-0.591098964214325,-4.002496719360352,-1000.2379760742188,-0.26463133096694946,1.5896375179290771,1.0255920886993408
1820,1479,-0.591098964214325,-4.002496719360352,-1000.2379760742188,-0.26463133096694946,1.5896375179290771,1.0255920886993408
1841,1479,-0.591098964214325,-4.002496719360352,-1000.2379760742188,-0.26463133096694946,1.5896375179290771,1.0255920886993408
1788,1479,-0.591098964214325,-4.002496719360352,-1000.2379760742188,-0.26463133096694946,1.5896375179290771,1.0255920886993408
1766,1479,-0.591098964214325,-4.002496719360352,-1000.2379760742188,-0.26463133096694946,1.5896375179290771,1.0255920886993408
1751,1479,-0.591098964214325,-4.002496719360352,-1000.2379760742188,-0.26463133096694946,1.5896375179290771,1.0255920886993408
1772,1479,-0.591098964214325,-4.002496719360352,-1000.2379760742188,-0.26463133096694946,1.5896375179290771,1.0255920886993408
1859,1480,-3.0084211826324463,-0.5278294086456299,-999.307373046875,-0.3470498323440552,2.036489486694336,0.33583471179008484
1834,1480,-3.0084211826324463,-0.5278294086456299,-999.307373046875,-0.3470498323440552,2.036489486694336,0.33583471179008484
1823,1480,-3.0084211826324463,-0.5278294086456299,-999.307373046875,-0.3470498323440552,2.036489486694336,0.33583471179008484
1838,1480,-3.0084211826324463,-0.5278294086456299,-999.307373046875,-0.3470498323440552,2.036489486694336,0.33583471179008484
1790,1480,-3.0084211826324463,-0.5278294086456299,-999.307373046875,-0.3470498323440552,2.036489486694336,0.33583471179008484
1765,1480,-3.0084211826324463,-0.5278294086456299,-999.307373046875,-0.3470498323440552,2.036489486694336,0.33583471179008484
1754,1480,-3.0084211826324463,-0.5278294086456299,-999.307373046875,-0.3470498323440552,2.036489486694336,0.33583471179008484
1769,1480,-3.0084211826324463,-0.5278294086456299,-999.307373046875,-0.3470498323440552,2.036489486694336,0.33583471179008484
1860,1481,-3.3760876655578613,-0.5060619115829468,-997.9971313476562,0.5307555794715881,2.2101423740386963,-0.9351065754890442
1824,1481,-3.3760876655578613,-0.5060619115829468,-997.9971313476562,0.5307555794715881,2.2101423740386963,-0.9351065754890442
1825,1481,-3.3760876655578613,-0.5060619115829468,-997.9971313476562,0.5307555794715881,2.2101423740386963,-0.9351065754890442
1845,1481,-3.3760876655578613,-0.5060619115829468,-997.9971313476562,0.5307555794715881,2.2101423740386963,-0.9351065754890442
1791,1481,-3.3760876655578613,-0.5060619115829468,-997.9971313476562,0.5307555794715881,2.2101423740386963,-0.9351065754890442
1755,1481,-3.3760876655578613,-0.5060619115829468,-997.9971313476562,0.5307555794715881,2.2101423740386963,-0.9351065754890442
1756,1481,-3.3760876655578613,-0.5060619115829468,-997.9971313476562,0.5307555794715881,2.2101423740386963,-0.9351065754890442
1776,1481,-3.3760876655578613,-0.5060619115829468,-997.9971313476562,0.5307555794715881,2.2101423740386963,-0.9351065754890442
1862,1482,0.09630951285362244,-1.2244192361831665,-998.7723388671875,1.1449971199035645,1.0316801071166992,0.47986868023872375
1827,1482,0.09630951285362244,-1.2244192361831665,-998.7723388671875,1.1449971199035645,1.0316801071166992,0.47986868023872375
1832,1482,0.09630951285362244,-1.2244192361831665,-998.7723388671875,1.1449971199035645,1.0316801071166992,0.47986868023872375
1844,1482,0.09630951285362244,-1.2244192361831665,-998.7723388671875,1.1449971199035645,1.0316801071166992,0.47986868023872375
1793,1482,0.09630951285362244,-1.2244192361831665,-998.7723388671875,1.1449971199035645,1.0316801071166992,0.47986868023872375
1758,1482,0.09630951285362244,-1.2244192361831665,-998.7723388671875,1.1449971199035645,1.0316801071166992,0.47986868023872375
1763,1482,0.09630951285362244,-1.2244192361831665,-998.7723388671875,1.1449971199035645,1.0316801071166992,0.47986868023872375
1775,1482,0.09630951285362244,-1.2244192361831665,-998.7723388671875,1.1449971199035645,1.0316801071166992,0.47986868023872375
1887,1483,-0.7807981371879578,-2.4013967514038086,-1000.0811767578125,0.478162944316864,-0.7311894297599792,0.23910096287727356
1876,1483,-0.7807981371879578,-2.4013967514038086,-1000.0811767578125,0.478162944316864,-0.7311894297599792,0.23910096287727356
1875,1483,-0.7807981371879578,-2.4013967514038086,-1000.0811767578125,0.478162944316864,-0.7311894297599792,0.23910096287727356
1904,1483,-0.7807981371879578,-2.4013967514038086,-1000.0811767578125,0.478162944316864,-0.7311894297599792,0.23910096287727356
1818,1483,-0.7807981371879578,-2.4013967514038086,-1000.0811767578125,0.478162944316864,-0.7311894297599792,0.23910096287727356
1807,1483,-0.7807981371879578,-2.4013967514038086,-1000.0811767578125,0.478162944316864,-0.7311894297599792,0.23910096287727356
1806,1483,-0.7807981371879578,-2.4013967514038086,-1000.0811767578125,0.478162944316864,-0.7311894297599792,0.23910096287727356
1835,1483,-0.7807981371879578,-2.4013967514038086,-1000.0811767578125,0.478162944316864,-0.7311894297599792,0.23910096287727356
1904,1484,-0.6496907472610474,-2.6279280185699463,-1000.200927734375,-0.0897374227643013,0.6149947643280029,0.3590681850910187
1875,1484,-0.6496907472610474,-2.6279280185699463,-1000.200927734375,-0.0897374227643013,0.6149947643280029,0.3590681850910187
1884,1484,-0.6496907472610474,-2.6279280185699463,-1000.200927734375,-0.0897374227643013,0.6149947643280029,0.3590681850910187
1889,1484,-0.6496907472610474,-2.6279280185699463,-1000.200927734375,-0.0897374227643013,0.6149947643280029,0.3590681850910187
1835,1484,-0.6496907472610474,-2.6279280185699463,-1000.200927734375,-0.0897374227643013,0.6149947643280029,0.3590681850910187
1806,1484,-0.6496907472610474,-2.6279280185699463,-1000.200927734375,-0.0897374227643013,0.6149947643280029,0.3590681850910187
1815,1484,-0.6496907472610474,-2.6279280185699463,-1000.200927734375,-0.0897374227643013,0.6149947643280029,0.3590681850910187
1820,1484,-0.6496907472610474,-2.6279280185699463,-1000.200927734375,-0.0897374227643013,0.6149947643280029,0.3590681850910187
1885,1485,-2.4169349670410156,-1.939871907234192,-1000.7913208007812,1.087015151977539,-0.40596380829811096,0.19181950390338898
1905,1485,-2.4169349670410156,-1.939871907234192,-1000.7913208007812,1.087015151977539,-0.40596380829811096,0.19181950390338898
1888,1485,-2.4169349670410156,-1.939871907234192,-1000.7913208007812,1.087015151977539,-0.40596380829811096,0.19181950390338898
1878,1485,-2.4169349670410156,-1.939871907234192,-1000.7913208007812,1.087015151977539,-0.40596380829811096,0.19181950390338898
1816,1485,-2.4169349670410156,-1.939871907234192,-1000.7913208007812,1.087015151977539,-0.40596380829811096,0.19181950390338898
1836,1485,-2.4169349670410156,-1.939871907234192,-1000.7913208007812,1.087015151977539,-0.40596380829811096,0.19181950390338898
1819,1485,-2.4169349670410156,-1.939871907234192,-1000.7913208007812,1.087015151977539,-0.40596380829811096,0.19181950390338898
1809,1485,-2.4169349670410156,-1.939871907234192,-1000.7913208007812,1.087015151977539,-0.40596380829811096,0.19181950390338898
1876,1486,-0.7806656956672668,-2.6361074447631836,-1000.9276733398438,0.5041685104370117,0.09509986639022827,0.18150630593299866
1887,1486,-0.7806656956672668,-2.6361074447631836,-1000.9276733398438,0.5041685104370117,0.09509986639022827,0.18150630593299866
1886,1486,-0.7806656956672668,-2.6361074447631836,-1000.9276733398438,0.5041685104370117,0.09509986639022827,0.18150630593299866
1877,1486,-0.7806656956672668,-2.6361074447631836,-1000.9276733398438,0.5041685104370117,0.09509986639022827,0.18150630593299866
1807,1486,-0.7806656956672668,-2.6361074447631836,-1000.9276733398438,0.5041685104370117,0.09509986639022827,0.18150630593299866
1818,1486,-0.7806656956672668,-2.6361074447631836,-1000.9276733398438,0.5041685104370117,0.09509986639022827,0.18150630593299866
1817,1486,-0.7806656956672668,-2.6361074447631836,-1000.9276733398438,0.5041685104370117,0.09509986639022827,0.18150630593299866
1808,1486,-0.7806656956672668,-2.6361074447631836,-1000.9276733398438,0.5041685104370117,0.09509986639022827,0.18150630593299866
1915,1487,-2.5167768001556396,-2.3388400077819824,-1000.04931640625,-1.5270835161209106,1.674809217453003,2.9962077140808105
1928,1487,-2.5167768001556396,-2.3388400077819824,-1000.04931640625,-1.5270835161209106,1.674809217453003,2.9962077140808105
1907,1487,-2.5167768001556396,-2.3388400077819824,-1000.04931640625,-1.5270835161209106,1.674809217453003,2.9962077140808105
1918,1487,-2.5167768001556396,-2.3388400077819824,-1000.04931640625,-1.5270835161209106,1.674809217453003,2.9962077140808105
1846,1487,-2.5167768001556396,-2.3388400077819824,-1000.04931640625,-1.5270835161209106,1.674809217453003,2.9962077140808105
1859,1487,-2.5167768001556396,-2.3388400077819824,-1000.04931640625,-1.5270835161209106,1.674809217453003,2.9962077140808105
1838,1487,-2.5167768001556396,-2.3388400077819824,-1000.04931640625,-1.5270835161209106,1.674809217453003,2.9962077140808105
1849,1487,-2.5167768001556396,-2.3388400077819824,-1000.04931640625,-1.5270835161209106,1.674809217453003,2.9962077140808105
1931,1488,3.0691590309143066,4.200358867645264,-997.8428344726562,-0.5338138937950134,1.0093882083892822,1.2484378814697266
1909,1488,3.0691590309143066,4.200358867645264,-997.8428344726562,-0.5338138937950134,1.0093882083892822,1.2484378814697266
1895,1488,3.0691590309143066,4.200358867645264,-997.8428344726562,-0.5338138937950134,1.0093882083892822,1.2484378814697266
1896,1488,3.0691590309143066,4.200358867645264,-997.8428344726562,-0.5338138937950134,1.0093882083892822,1.2484378814697266
1862,1488,3.0691590309143066,4.200358867645264,-997.8428344726562,-0.5338138937950134,1.0093882083892822,1.2484378814697266
1840,1488,3.0691590309143066,4.200358867645264,-997.8428344726562,-0.5338138937950134,1.0093882083892822,1.2484378814697266
1826,1488,3.0691590309143066,4.200358867645264,-997.8428344726562,-0.5338138937950134,1.0093882083892822,1.2484378814697266
1827,1488,3.0691590309143066,4.200358867645264,-997.8428344726562,-0.5338138937950134,1.0093882083892822,1.2484378814697266
1919,1489,2.558551549911499,3.3674628734588623,-998.452392578125,-0.692396879196167,-2.282198429107666,-0.8501260280609131
1916,1489,2.558551549911499,3.3674628734588623,-998.452392578125,-0.692396879196167,-2.282198429107666,-0.8501260280609131
1915,1489,2.558551549911499,3.3674628734588623,-998.452392578125,-0.692396879196167,-2.282198429107666,-0.8501260280609131
1918,1489,2.558551549911499,3.3674628734588623,-998.452392578125,-0.692396879196167,-2.282198429107666,-0.8501260280609131
1850,1489,2.558551549911499,3.3674628734588623,-998.452392578125,-0.692396879196167,-2.282198429107666,-0.8501260280609131
1847,1489,2.558551549911499,3.3674628734588623,-998.452392578125,-0.692396879196167,-2.282198429107666,-0.8501260280609131
1846,1489,2.558551549911499,3.3674628734588623,-998.452392578125,-0.692396879196167,-2.282198429107666,-0.8501260280609131
1849,1489,2.558551549911499,3.3674628734588623,-998.452392578125,-0.692396879196167,-2.282198429107666,-0.8501260280609131
1910,1490,-2.7089290618896484,-4.554226875305176,-1000.3649291992188,-1.1682915687561035,2.229337453842163,-0.6086627244949341
1927,1490,-2.7089290618896484,-4.554226875305176,-1000.3649291992188,-1.1682915687561035,2.229337453842163,-0.6086627244949341
1915,1490,-2.7089290618896484,-4.554226875305176,-1000.3649291992188,-1.1682915687561035,2.229337453842163,-0.6086627244949341
1916,1490,-2.7089290618896484,-4.554226875305176,-1000.3649291992188,-1.1682915687561035,2.229337453842163,-0.6086627244949341
1841,1490,-2.7089290618896484,-4.554226875305176,-1000.3649291992188,-1.1682915687561035,2.229337453842163,-0.6086627244949341
1858,1490,-2.7089290618896484,-4.554226875305176,-1000.3649291992188,-1.1682915687561035,2.229337453842163,-0.6086627244949341
1846,1490,-2.7089290618896484,-4.554226875305176,-1000.3649291992188,-1.1682915687561035,2.229337453842163,-0.6086627244949341
1847,1490,-2.7089290618896484,-4.554226875305176,-1000.3649291992188,-1.1682915687561035,2.229337453842163,-0.6086627244949341
1890,1491,2.5637366771698,2.3082404136657715,-999.55810546875,1.5665560960769653,0.9202545285224915,-1.4887057542800903
1903,1491,2.5637366771698,2.3082404136657715,-999.55810546875,1.5665560960769653,0.9202545285224915,-1.4887057542800903
1928,1491,2.5637366771698,2.3082404136657715,-999.55810546875,1.5665560960769653,0.9202545285224915,-1.4887057542800903
1915,1491,2.5637366771698,2.3082404136657715,-999.55810546875,1.5665560960769653,0.9202545285224915,-1.4887057542800903
1821,1491,2.5637366771698,2.3082404136657715,-999.55810546875,1.5665560960769653,0.9202545285224915,-1.4887057542800903
1834,1491,2.5637366771698,2.3082404136657715,-999.55810546875,1.5665560960769653,0.9202545285224915,-1.4887057542800903
1859,1491,2.5637366771698,2.3082404136657715,-999.55810546875,1.5665560960769653,0.9202545285224915,-1.4887057542800903
1846,1491,2.5637366771698,2.3082404136657715,-999.55810546875,1.5665560960769653,0.9202545285224915,-1.4887057542800903
1930,1492,6.8795247077941895,2.777066946029663,-996.5284423828125,-0.35270956158638,-0.20164556801319122,1.9077568054199219
1914,1492,6.8795247077941895,2.777066946029663,-996.5284423828125,-0.35270956158638,-0.20164556801319122,1.9077568054199219
1894,1492,6.8795247077941895,2.777066946029663,-996.5284423828125,-0.35270956158638,-0.20164556801319122,1.9077568054199219
1902,1492,6.8795247077941895,2.777066946029663,-996.5284423828125,-0.35270956158638,-0.20164556801319122,1.9077568054199219
1861,1492,6.8795247077941895,2.777066946029663,-996.5284423828125,-0.35270956158638,-0.20164556801319122,1.9077568054199219
1845,1492,6.8795247077941895,2.777066946029663,-996.5284423828125,-0.35270956158638,-0.20164556801319122,1.9077568054199219
1825,1492,6.8795247077941895,2.777066946029663,-996.5284423828125,-0.35270956158638,-0.20164556801319122,1.9077568054199219
1833,1492,6.8795247077941895,2.777066946029663,-996.5284423828125,-0.35270956158638,-0.20164556801319122,1.9077568054199219
1924,1493,-1.9563205242156982,-1.7401320934295654,-1001.6271362304688,-1.5701830387115479,-2.8156681060791016,2.9402124881744385
1919,1493,-1.9563205242156982,-1.7401320934295654,-1001.6271362304688,-1.5701830387115479,-2.8156681060791016,2.9402124881744385
1898,1493,-1.9563205242156982,-1.7401320934295654,-1001.6271362304688,-1.5701830387115479,-2.8156681060791016,2.9402124881744385
1912,1493,-1.9563205242156982,-1.7401320934295654,-1001.6271362304688,-1.5701830387115479,-2.8156681060791016,2.9402124881744385
1855,1493,-1.9563205242156982,-1.7401320934295654,-1001.6271362304688,-1.5701830387115479,-2.8156681060791016,2.9402124881744385
1850,1493,-1.9563205242156982,-1.7401320934295654,-1001.6271362304688,-1.5701830387115479,-2.8156681060791016,2.9402124881744385
1829,1493,-1.9563205242156982,-1.7401320934295654,-1001.6271362304688,-1.5701830387115479,-2.8156681060791016,2.9402124881744385
1843,1493,-1.9563205242156982,-1.7401320934295654,-1001.6271362304688,-1.5701830387115479,-2.8156681060791016,2.9402124881744385
1898,1494,1.0227144956588745,0.5670023560523987,-1000.5587158203125,1.422156810760498,-0.14922960102558136,-2.3225321769714355
1913,1494,1.0227144956588745,0.5670023560523987,-1000.5587158203125,1.422156810760498,-0.14922960102558136,-2.3225321769714355
1921,1494,1.0227144956588745,0.5670023560523987,-1000.5587158203125,1.422156810760498,-0.14922960102558136,-2.3225321769714355
1922,1494,1.0227144956588745,0.5670023560523987,-1000.5587158203125,1.422156810760498,-0.14922960102558136,-2.3225321769714355
1829,1494,1.0227144956588745,0.5670023560523987,-1000.5587158203125,1.422156810760498,-0.14922960102558136,-2.3225321769714355
1844,1494,1.0227144956588745,0.5670023560523987,-1000.5587158203125,1.422156810760498,-0.14922960102558136,-2.3225321769714355
1852,1494,1.0227144956588745,0.5670023560523987,-1000.5587158203125,1.422156810760498,-0.14922960102558136,-2.3225321769714355
1853,1494,1.0227144956588745,0.5670023560523987,-1000.5587158203125,1.422156810760498,-0.14922960102558136,-2.3225321769714355
1905,1495,2.4920263290405273,2.3099403381347656,-1002.9705810546875,-1.7830698490142822,1.741121530532837,-0.18469269573688507
1886,1495,2.4920263290405273,2.3099403381347656,-1002.9705810546875,-1.7830698490142822,1.741121530532837,-0.18469269573688507
1925,1495,2.4920263290405273,2.3099403381347656,-1002.9705810546875,-1.7830698490142822,1.741121530532837,-0.18469269573688507
1908,1495,2.4920263290405273,2.3099403381347656,-1002.9705810546875,-1.7830698490142822,1.741121530532837,-0.18469269573688507
1836,1495,2.4920263290405273,2.3099403381347656,-1002.9705810546875,-1.7830698490142822,1.741121530532837,-0.18469269573688507
1817,1495,2.4920263290405273,2.3099403381347656,-1002.9705810546875,-1.7830698490142822,1.741121530532837,-0.18469269573688507
1856,1495,2.4920263290405273,2.3099403381347656,-1002.9705810546875,-1.7830698490142822,1.741121530532837,-0.18469269573688507
1839,1495,2.4920263290405273,2.3099403381347656,-1002.9705810546875,-1.7830698490142822,1.741121530532837,-0.18469269573688507
1932,1496,3.554861068725586,2.807626247406006,-996.592529296875,-1.4096125364303589,1.117348551750183,0.3937322497367859
1888,1496,3.554861068725586,2.807626247406006,-996.592529296875,-1.4096125364303589,1.117348551750183,0.3937322497367859
1905,1496,3.554861068725586,2.807626247406006,-996.592529296875,-1.4096125364303589,1.117348551750183,0.3937322497367859
1908,1496,3.554861068725586,2.807626247406006,-996.592529296875,-1.4096125364303589,1.117348551750183,0.3937322497367859
1863,1496,3.554861068725586,2.807626247406006,-996.592529296875,-1.4096125364303589,1.117348551750183,0.3937322497367859
1819,1496,3.554861068725586,2.807626247406006,-996.592529296875,-1.4096125364303589,1.117348551750183,0.3937322497367859
1836,1496,3.554861068725586,2.807626247406006,-996.592529296875,-1.4096125364303589,1.117348551750183,0.3937322497367859
1839,1496,3.554861068725586,2.807626247406006,-996.592529296875,-1.4096125364303589,1.117348551750183,0.3937322497367859
1892,1497,5.270550727844238,1.708396077156067,-998.1283569335938,0.8537951707839966,-1.515220284461975,-2.0066189765930176
1893,1497,5.270550727844238,1.708396077156067,-998.1283569335938,0.8537951707839966,-1.515220284461975,-2.0066189765930176
1929,1497,5.270550727844238,1.708396077156067,-998.1283569335938,0.8537951707839966,-1.515220284461975,-2.0066189765930176
1907,1497,5.270550727844238,1.708396077156067,-998.1283569335938,0.8537951707839966,-1.515220284461975,-2.0066189765930176
1823,1497,5.270550727844238,1.708396077156067,-998.1283569335938,0.8537951707839966,-1.515220284461975,-2.0066189765930176
1824,1497,5.270550727844238,1.708396077156067,-998.1283569335938,0.8537951707839966,-1.515220284461975,-2.0066189765930176
1860,1497,5.270550727844238,1.708396077156067,-998.1283569335938,0.8537951707839966,-1.515220284461975,-2.0066189765930176
1838,1497,5.270550727844238,1.708396077156067,-998.1283569335938,0.8537951707839966,-1.515220284461975,-2.0066189765930176
1877,1498,-1.549715518951416,-1.6657609939575195,-999.804931640625,1.1608699560165405,-0.4662012457847595,0.0006832959479652345
1886,1498,-1.549715518951416,-1.6657609939575195,-999.804931640625,1.1608699560165405,-0.4662012457847595,0.0006832959479652345
1905,1498,-1.549715518951416,-1.6657609939575195,-999.804931640625,1.1608699560165405,-0.4662012457847595,0.0006832959479652345
1885,1498,-1.549715518951416,-1.6657609939575195,-999.804931640625,1.1608699560165405,-0.4662012457847595,0.0006832959479652345
1808,1498,-1.549715518951416,-1.6657609939575195,-999.804931640625,1.1608699560165405,-0.4662012457847595,0.0006832959479652345
1817,1498,-1.549715518951416,-1.6657609939575195,-999.804931640625,1.1608699560165405,-0.4662012457847595,0.0006832959479652345
1836,1498,-1.549715518951416,-1.6657609939575195,-999.804931640625,1.1608699560165405,-0.4662012457847595,0.0006832959479652345
1816,1498,-1.549715518951416,-1.6657609939575195,-999.804931640625,1.1608699560165405,-0.4662012457847595,0.0006832959479652345
1874,1499,-0.7306519746780396,-3.2539844512939453,-1000.647705078125,0.0750141441822052,-0.209151491522789,-0.16273893415927887
1920,1499,-0.7306519746780396,-3.2539844512939453,-1000.647705078125,0.0750141441822052,-0.209151491522789,-0.16273893415927887
1889,1499,-0.7306519746780396,-3.2539844512939453,-1000.647705078125,0.0750141441822052,-0.209151491522789,-0.16273893415927887
1884,1499,-0.7306519746780396,-3.2539844512939453,-1000.647705078125,0.0750141441822052,-0.209151491522789,-0.16273893415927887
1805,1499,-0.7306519746780396,-3.2539844512939453,-1000.647705078125,0.0750141441822052,-0.209151491522789,-0.16273893415927887
1851,1499,-0.7306519746780396,-3.2539844512939453,-1000.647705078125,0.0750141441822052,-0.209151491522789,-0.16273893415927887
1820,1499,-0.7306519746780396,-3.2539844512939453,-1000.647705078125,0.0750141441822052,-0.209151491522789,-0.16273893415927887
1815,1499,-0.7306519746780396,-3.2539844512939453,-1000.647705078125,0.0750141441822052,-0.209151491522789,-0.16273893415927887
1890,1500,-1.833574652671814,-1.3080891370773315,-1000.2794799804688,-0.902310311794281,-0.07715584337711334,0.5327074527740479
1873,1500,-1.833574652671814,-1.3080891370773315,-1000.2794799804688,-0.902310311794281,-0.07715584337711334,0.5327074527740479
1883,1500,-1.833574652671814,-1.3080891370773315,-1000.2794799804688,-0.902310311794281,-0.07715584337711334,0.5327074527740479
1903,1500,-1.833574652671814,-1.3080891370773315,-1000.2794799804688,-0.902310311794281,-0.07715584337711334,0.5327074527740479
1821,1500,-1.833574652671814,-1.3080891370773315,-1000.2794799804688,-0.902310311794281,-0.07715584337711334,0.5327074527740479
1804,1500,-1.833574652671814,-1.3080891370773315,-1000.2794799804688,-0.902310311794281,-0.07715584337711334,0.5327074527740479
1814,1500,-1.833574652671814,-1.3080891370773315,-1000.2794799804688,-0.902310311794281,-0.07715584337711334,0.5327074527740479
1834,1500,-1.833574652671814,-1.3080891370773315,-1000.2794799804688,-0.902310311794281,-0.07715584337711334,0.5327074527740479
1891,1501,-3.5973658561706543,-0.7312557101249695,-999.79248046875,0.44463464617729187,-0.4039677679538727,0.057440657168626785
1879,1501,-3.5973658561706543,-0.7312557101249695,-999.79248046875,0.44463464617729187,-0.4039677679538727,0.057440657168626785
1878,1501,-3.5973658561706543,-0.7312557101249695,-999.79248046875,0.44463464617729187,-0.4039677679538727,0.057440657168626785
1888,1501,-3.5973658561706543,-0.7312557101249695,-999.79248046875,0.44463464617729187,-0.4039677679538727,0.057440657168626785
1822,1501,-3.5973658561706543,-0.7312557101249695,-999.79248046875,0.44463464617729187,-0.4039677679538727,0.057440657168626785
1810,1501,-3.5973658561706543,-0.7312557101249695,-999.79248046875,0.44463464617729187,-0.4039677679538727,0.057440657168626785
1809,1501,-3.5973658561706543,-0.7312557101249695,-999.79248046875,0.44463464617729187,-0.4039677679538727,0.057440657168626785
1819,1501,-3.5973658561706543,-0.7312557101249695,-999.79248046875,0.44463464617729187,-0.4039677679538727,0.057440657168626785
1903,1502,-2.93025541305542,-0.7211721539497375,-1000.2381591796875,-0.5012467503547668,0.42758697271347046,-0.04029513895511627
1883,1502,-2.93025541305542,-0.7211721539497375,-1000.2381591796875,-0.5012467503547668,0.42758697271347046,-0.04029513895511627
1872,1502,-2.93025541305542,-0.7211721539497375,-1000.2381591796875,-0.5012467503547668,0.42758697271347046,-0.04029513895511627
1892,1502,-2.93025541305542,-0.7211721539497375,-1000.2381591796875,-0.5012467503547668,0.42758697271347046,-0.04029513895511627
1834,1502,-2.93025541305542,-0.7211721539497375,-1000.2381591796875,-0.5012467503547668,0.42758697271347046,-0.04029513895511627
1814,1502,-2.93025541305542,-0.7211721539497375,-1000.2381591796875,-0.5012467503547668,0.42758697271347046,-0.04029513895511627
1803,1502,-2.93025541305542,-0.7211721539497375,-1000.2381591796875,-0.5012467503547668,0.42758697271347046,-0.04029513895511627
1823,1502,-2.93025541305542,-0.7211721539497375,-1000.2381591796875,-0.5012467503547668,0.42758697271347046,-0.04029513895511627
1927,1503,1.2944036722183228,2.411548137664795,-1000.3123779296875,1.6665804386138916,-1.3142246007919312,0.5139159560203552
1920,1503,1.2944036722183228,2.411548137664795,-1000.3123779296875,1.6665804386138916,-1.3142246007919312,0.5139159560203552
1890,1503,1.2944036722183228,2.411548137664795,-1000.3123779296875,1.6665804386138916,-1.3142246007919312,0.5139159560203552
1915,1503,1.2944036722183228,2.411548137664795,-1000.3123779296875,1.6665804386138916,-1.3142246007919312,0.5139159560203552
1858,1503,1.2944036722183228,2.411548137664795,-1000.3123779296875,1.6665804386138916,-1.3142246007919312,0.5139159560203552
1851,1503,1.2944036722183228,2.411548137664795,-1000.3123779296875,1.6665804386138916,-1.3142246007919312,0.5139159560203552
1821,1503,1.2944036722183228,2.411548137664795,-1000.3123779296875,1.6665804386138916,-1.3142246007919312,0.5139159560203552
1846,1503,1.2944036722183228,2.411548137664795,-1000.3123779296875,1.6665804386138916,-1.3142246007919312,0.5139159560203552
1892,1504,-2.885455846786499,-0.977493405342102,-1000.4340209960938,-0.3325209319591522,0.5894209146499634,0.7293765544891357
1872,1504,-2.885455846786499,-0.977493405342102,-1000.4340209960938,-0.3325209319591522,0.5894209146499634,0.7293765544891357
1871,1504,-2.885455846786499,-0.977493405342102,-1000.4340209960938,-0.3325209319591522,0.5894209146499634,0.7293765544891357
1893,1504,-2.885455846786499,-0.977493405342102,-1000.4340209960938,-0.3325209319591522,0.5894209146499634,0.7293765544891357
1823,1504,-2.885455846786499,-0.977493405342102,-1000.4340209960938,-0.3325209319591522,0.5894209146499634,0.7293765544891357
1803,1504,-2.885455846786499,-0.977493405342102,-1000.4340209960938,-0.3325209319591522,0.5894209146499634,0.7293765544891357
1802,1504,-2.885455846786499,-0.977493405342102,-1000.4340209960938,-0.3325209319591522,0.5894209146499634,0.7293765544891357
1824,1504,-2.885455846786499,-0.977493405342102,-1000.4340209960938,-0.3325209319591522,0.5894209146499634,0.7293765544891357
1893,1505,-2.8272736072540283,-0.604131281375885,-999.9159545898438,0.21299344301223755,0.4696502983570099,-0.6713196039199829
1871,1505,-2.8272736072540283,-0.604131281375885,-999.9159545898438,0.21299344301223755,0.4696502983570099,-0.6713196039199829
1870,1505,-2.8272736072540283,-0.604131281375885,-999.9159545898438,0.21299344301223755,0.4696502983570099,-0.6713196039199829
1894,1505,-2.8272736072540283,-0.604131281375885,-999.9159545898438,0.21299344301223755,0.4696502983570099,-0.6713196039199829
1824,1505,-2.8272736072540283,-0.604131281375885,-999.9159545898438,0.21299344301223755,0.4696502983570099,-0.6713196039199829
1802,1505,-2.8272736072540283,-0.604131281375885,-999.9159545898438,0.21299344301223755,0.4696502983570099,-0.6713196039199829
1801,1505,-2.8272736072540283,-0.604131281375885,-999.9159545898438,0.21299344301223755,0.4696502983570099,-0.6713196039199829
1825,1505,-2.8272736072540283,-0.604131281375885,-999.9159545898438,0.21299344301223755,0.4696502983570099,-0.6713196039199829
1924,1506,-0.7374488711357117,-1.8513190746307373,-997.1529541015625,-1.4181917905807495,-0.28384464979171753,-3.162619113922119
1912,1506,-0.7374488711357117,-1.8513190746307373,-997.1529541015625,-1.4181917905807495,-0.28384464979171753,-3.162619113922119
1923,1506,-0.7374488711357117,-1.8513190746307373,-997.1529541015625,-1.4181917905807495,-0.28384464979171753,-3.162619113922119
1917,1506,-0.7374488711357117,-1.8513190746307373,-997.1529541015625,-1.4181917905807495,-0.28384464979171753,-3.162619113922119
1855,1506,-0.7374488711357117,-1.8513190746307373,-997.1529541015625,-1.4181917905807495,-0.28384464979171753,-3.162619113922119
1843,1506,-0.7374488711357117,-1.8513190746307373,-997.1529541015625,-1.4181917905807495,-0.28384464979171753,-3.162619113922119
1854,1506,-0.7374488711357117,-1.8513190746307373,-997.1529541015625,-1.4181917905807495,-0.28384464979171753,-3.162619113922119
1848,1506,-0.7374488711357117,-1.8513190746307373,-997.1529541015625,-1.4181917905807495,-0.28384464979171753,-3.162619113922119
1879,1507,-3.2110378742218018,-1.3471901416778564,-1000.7155151367188,-0.5943729877471924,-0.06240437552332878,0.06295952945947647
1891,1507,-3.2110378742218018,-1.3471901416778564,-1000.7155151367188,-0.5943729877471924,-0.06240437552332878,0.06295952945947647
1899,1507,-3.2110378742218018,-1.3471901416778564,-1000.7155151367188,-0.5943729877471924,-0.06240437552332878,0.06295952945947647
1864,1507,-3.2110378742218018,-1.3471901416778564,-1000.7155151367188,-0.5943729877471924,-0.06240437552332878,0.06295952945947647
1810,1507,-3.2110378742218018,-1.3471901416778564,-1000.7155151367188,-0.5943729877471924,-0.06240437552332878,0.06295952945947647
1822,1507,-3.2110378742218018,-1.3471901416778564,-1000.7155151367188,-0.5943729877471924,-0.06240437552332878,0.06295952945947647
1830,1507,-3.2110378742218018,-1.3471901416778564,-1000.7155151367188,-0.5943729877471924,-0.06240437552332878,0.06295952945947647
1795,1507,-3.2110378742218018,-1.3471901416778564,-1000.7155151367188,-0.5943729877471924,-0.06240437552332878,0.06295952945947647
1894,1508,-3.553891181945801,-1.1876072883605957,-1000.8759155273438,0.42522498965263367,0.3303043842315674,0.07189762592315674
1870,1508,-3.553891181945801,-1.1876072883605957,-1000.8759155273438,0.42522498965263367,0.3303043842315674,0.07189762592315674
1882,1508,-3.553891181945801,-1.1876072883605957,-1000.8759155273438,0.42522498965263367,0.3303043842315674,0.07189762592315674
1902,1508,-3.553891181945801,-1.1876072883605957,-1000.8759155273438,0.42522498965263367,0.3303043842315674,0.07189762592315674
1825,1508,-3.553891181945801,-1.1876072883605957,-1000.8759155273438,0.42522498965263367,0.3303043842315674,0.07189762592315674
1801,1508,-3.553891181945801,-1.1876072883605957,-1000.8759155273438,0.42522498965263367,0.3303043842315674,0.07189762592315674
1813,1508,-3.553891181945801,-1.1876072883605957,-1000.8759155273438,0.42522498965263367,0.3303043842315674,0.07189762592315674
1833,1508,-3.553891181945801,-1.1876072883605957,-1000.8759155273438,0.42522498965263367,0.3303043842315674,0.07189762592315674
1902,1509,-2.0270471572875977,-1.1379035711288452,-999.640380859375,1.2036644220352173,0.20148392021656036,-0.6471360921859741
1882,1509,-2.0270471572875977,-1.1379035711288452,-999.640380859375,1.2036644220352173,0.20148392021656036,-0.6471360921859741
1869,1509,-2.0270471572875977,-1.1379035711288452,-999.640380859375,1.2036644220352173,0.20148392021656036,-0.6471360921859741
1895,1509,-2.0270471572875977,-1.1379035711288452,-999.640380859375,1.2036644220352173,0.20148392021656036,-0.6471360921859741
1833,1509,-2.0270471572875977,-1.1379035711288452,-999.640380859375,1.2036644220352173,0.20148392021656036,-0.6471360921859741
1813,1509,-2.0270471572875977,-1.1379035711288452,-999.640380859375,1.2036644220352173,0.20148392021656036,-0.6471360921859741
1800,1509,-2.0270471572875977,-1.1379035711288452,-999.640380859375,1.2036644220352173,0.20148392021656036,-0.6471360921859741
1826,1509,-2.0270471572875977,-1.1379035711288452,-999.640380859375,1.2036644220352173,0.20148392021656036,-0.6471360921859741
1895,1510,-1.7543776035308838,-2.3848774433135986,-1000.78173828125,0.9306071400642395,0.02479039691388607,0.028443526476621628
1869,1510,-1.7543776035308838,-2.3848774433135986,-1000.78173828125,0.9306071400642395,0.02479039691388607,0.028443526476621628
1868,1510,-1.7543776035308838,-2.3848774433135986,-1000.78173828125,0.9306071400642395,0.02479039691388607,0.028443526476621628
1896,1510,-1.7543776035308838,-2.3848774433135986,-1000.78173828125,0.9306071400642395,0.02479039691388607,0.028443526476621628
1826,1510,-1.7543776035308838,-2.3848774433135986,-1000.78173828125,0.9306071400642395,0.02479039691388607,0.028443526476621628
1800,1510,-1.7543776035308838,-2.3848774433135986,-1000.78173828125,0.9306071400642395,0.02479039691388607,0.028443526476621628
1799,1510,-1.7543776035308838,-2.3848774433135986,-1000.78173828125,0.9306071400642395,0.02479039691388607,0.028443526476621628
1827,1510,-1.7543776035308838,-2.3848774433135986,-1000.78173828125,0.9306071400642395,0.02479039691388607,0.028443526476621628
1896,1511,-0.7979846000671387,-2.7284955978393555,-999.869140625,0.4891802668571472,0.10514941066503525,-0.1729366034269333
1868,1511,-0.7979846000671387,-2.7284955978393555,-999.869140625,0.4891802668571472,0.10514941066503525,-0.1729366034269333
1881,1511,-0.7979846000671387,-2.7284955978393555,-999.869140625,0.4891802668571472,0.10514941066503525,-0.1729366034269333
1901,1511,-0.7979846000671387,-2.7284955978393555,-999.869140625,0.4891802668571472,0.10514941066503525,-0.1729366034269333
1827,1511,-0.7979846000671387,-2.7284955978393555,-999.869140625,0.4891802668571472,0.10514941066503525,-0.1729366034269333
1799,1511,-0.7979846000671387,-2.7284955978393555,-999.869140625,0.4891802668571472,0.10514941066503525,-0.1729366034269333
1812,1511,-0.7979846000671387,-2.7284955978393555,-999.869140625,0.4891802668571472,0.10514941066503525,-0.1729366034269333
1832,1511,-0.7979846000671387,-2.7284955978393555,-999.869140625,0.4891802668571472,0.10514941066503525,-0.1729366034269333
1901,1512,-1.307898759841919,-4.4660725593566895,-1000.7979736328125,0.22751569747924805,0.2465333640575409,-0.7552077770233154
1881,1512,-1.307898759841919,-4.4660725593566895,-1000.7979736328125,0.22751569747924805,0.2465333640575409,-0.7552077770233154
1867,1512,-1.307898759841919,-4.4660725593566895,-1000.7979736328125,0.22751569747924805,0.2465333640575409,-0.7552077770233154
1897,1512,-1.307898759841919,-4.4660725593566895,-1000.7979736328125,0.22751569747924805,0.2465333640575409,-0.7552077770233154
1832,1512,-1.307898759841919,-4.4660725593566895,-1000.7979736328125,0.22751569747924805,0.2465333640575409,-0.7552077770233154
1812,1512,-1.307898759841919,-4.4660725593566895,-1000.7979736328125,0.22751569747924805,0.2465333640575409,-0.7552077770233154
1798,1512,-1.307898759841919,-4.4660725593566895,-1000.7979736328125,0.22751569747924805,0.2465333640575409,-0.7552077770233154
1828,1512,-1.307898759841919,-4.4660725593566895,-1000.7979736328125,0.22751569747924805,0.2465333640575409,-0.7552077770233154
1921,1513,-0.9950818419456482,-1.768174648284912,-1000.643310546875,-0.6224421858787537,0.15882480144500732,0.30283889174461365
1866,1513,-0.9950818419456482,-1.768174648284912,-1000.643310546875,-0.6224421858787537,0.15882480144500732,0.30283889174461365
1865,1513,-0.9950818419456482,-1.768174648284912,-1000.643310546875,-0.6224421858787537,0.15882480144500732,0.30283889174461365
1922,1513,-0.9950818419456482,-1.768174648284912,-1000.643310546875,-0.6224421858787537,0.15882480144500732,0.30283889174461365
1852,1513,-0.9950818419456482,-1.768174648284912,-1000.643310546875,-0.6224421858787537,0.15882480144500732,0.30283889174461365
1797,1513,-0.9950818419456482,-1.768174648284912,-1000.643310546875,-0.6224421858787537,0.15882480144500732,0.30283889174461365
1796,1513,-0.9950818419456482,-1.768174648284912,-1000.643310546875,-0.6224421858787537,0.15882480144500732,0.30283889174461365
1853,1513,-0.9950818419456482,-1.768174648284912,-1000.643310546875,-0.6224421858787537,0.15882480144500732,0.30283889174461365
1900,1514,-2.001804828643799,-0.9197280406951904,-999.9688720703125,-0.7879438996315002,-0.49557989835739136,-0.016426442191004753
1880,1514,-2.001804828643799,-0.9197280406951904,-999.9688720703125,-0.7879438996315002,-0.49557989835739136,-0.016426442191004753
1864,1514,-2.001804828643799,-0.9197280406951904,-999.9688720703125,-0.7879438996315002,-0.49557989835739136,-0.016426442191004753
1899,1514,-2.001804828643799,-0.9197280406951904,-999.9688720703125,-0.7879438996315002,-0.49557989835739136,-0.016426442191004753
1831,1514,-2.001804828643799,-0.9197280406951904,-999.9688720703125,-0.7879438996315002,-0.49557989835739136,-0.016426442191004753
1811,1514,-2.001804828643799,-0.9197280406951904,-999.9688720703125,-0.7879438996315002,-0.49557989835739136,-0.016426442191004753
1795,1514,-2.001804828643799,-0.9197280406951904,-999.9688720703125,-0.7879438996315002,-0.49557989835739136,-0.016426442191004753
1830,1514,-2.001804828643799,-0.9197280406951904,-999.9688720703125,-0.7879438996315002,-0.49557989835739136,-0.016426442191004753
1923,1515,6.432441234588623,3.9707136154174805,-995.7220458984375,1.2859158515930176,0.12098553776741028,1.5503126382827759
1899,1515,6.432441234588623,3.9707136154174805,-995.7220458984375,1.2859158515930176,0.12098553776741028,1.5503126382827759
1891,1515,6.432441234588623,3.9707136154174805,-995.7220458984375,1.2859158515930176,0.12098553776741028,1.5503126382827759
1906,1515,6.432441234588623,3.9707136154174805,-995.7220458984375,1.2859158515930176,0.12098553776741028,1.5503126382827759
1854,1515,6.432441234588623,3.9707136154174805,-995.7220458984375,1.2859158515930176,0.12098553776741028,1.5503126382827759
1830,1515,6.432441234588623,3.9707136154174805,-995.7220458984375,1.2859158515930176,0.12098553776741028,1.5503126382827759
1822,1515,6.432441234588623,3.9707136154174805,-995.7220458984375,1.2859158515930176,0.12098553776741028,1.5503126382827759
1837,1515,6.432441234588623,3.9707136154174805,-995.7220458984375,1.2859158515930176,0.12098553776741028,1.5503126382827759
1922,1516,3.612025499343872,4.498896598815918,-997.6065673828125,0.7417801022529602,-0.405923992395401,1.270856499671936
1900,1516,3.612025499343872,4.498896598815918,-997.6065673828125,0.7417801022529602,-0.405923992395401,1.270856499671936
1912,1516,3.612025499343872,4.498896598815918,-997.6065673828125,0.7417801022529602,-0.405923992395401,1.270856499671936
1898,1516,3.612025499343872,4.498896598815918,-997.6065673828125,0.7417801022529602,-0.405923992395401,1.270856499671936
1853,1516,3.612025499343872,4.498896598815918,-997.6065673828125,0.7417801022529602,-0.405923992395401,1.270856499671936
1831,1516,3.612025499343872,4.498896598815918,-997.6065673828125,0.7417801022529602,-0.405923992395401,1.270856499671936
1843,1516,3.612025499343872,4.498896598815918,-997.6065673828125,0.7417801022529602,-0.405923992395401,1.270856499671936
1829,1516,3.612025499343872,4.498896598815918,-997.6065673828125,0.7417801022529602,-0.405923992395401,1.270856499671936
1897,1517,-0.9717838168144226,-3.298783779144287,-1000.03466796875,-0.7885969877243042,-0.39623376727104187,-0.7353948950767517
1867,1517,-0.9717838168144226,-3.298783779144287,-1000.03466796875,-0.7885969877243042,-0.39623376727104187,-0.7353948950767517
1866,1517,-0.9717838168144226,-3.298783779144287,-1000.03466796875,-0.7885969877243042,-0.39623376727104187,-0.7353948950767517
1921,1517,-0.9717838168144226,-3.298783779144287,-1000.03466796875,-0.7885969877243042,-0.39623376727104187,-0.7353948950767517
1828,1517,-0.9717838168144226,-3.298783779144287,-1000.03466796875,-0.7885969877243042,-0.39623376727104187,-0.7353948950767517
1798,1517,-0.9717838168144226,-3.298783779144287,-1000.03466796875,-0.7885969877243042,-0.39623376727104187,-0.7353948950767517
1797,1517,-0.9717838168144226,-3.298783779144287,-1000.03466796875,-0.7885969877243042,-0.39623376727104187,-0.7353948950767517
1852,1517,-0.9717838168144226,-3.298783779144287,-1000.03466796875,-0.7885969877243042,-0.39623376727104187,-0.7353948950767517
1906,1518,3.87876558303833,0.31509748101234436,-1004.0078125,-0.9508729577064514,1.8674923181533813,-2.1838817596435547
1891,1518,3.87876558303833,0.31509748101234436,-1004.0078125,-0.9508729577064514,1.8674923181533813,-2.1838817596435547
1888,1518,3.87876558303833,0.31509748101234436,-1004.0078125,-0.9508729577064514,1.8674923181533813,-2.1838817596435547
1932,1518,3.87876558303833,0.31509748101234436,-1004.0078125,-0.9508729577064514,1.8674923181533813,-2.1838817596435547
1837,1518,3.87876558303833,0.31509748101234436,-1004.0078125,-0.9508729577064514,1.8674923181533813,-2.1838817596435547
1822,1518,3.87876558303833,0.31509748101234436,-1004.0078125,-0.9508729577064514,1.8674923181533813,-2.1838817596435547
1819,1518,3.87876558303833,0.31509748101234436,-1004.0078125,-0.9508729577064514,1.8674923181533813,-2.1838817596435547
1863,1518,3.87876558303833,0.31509748101234436,-1004.0078125,-0.9508729577064514,1.8674923181533813,-2.1838817596435547
1917,1519,-0.4368075132369995,0.6879221200942993,-998.6773681640625,1.7319228649139404,-0.24875213205814362,-0.4615337550640106
1932,1519,-0.4368075132369995,0.6879221200942993,-998.6773681640625,1.7319228649139404,-0.24875213205814362,-0.4615337550640106
1908,1519,-0.4368075132369995,0.6879221200942993,-998.6773681640625,1.7319228649139404,-0.24875213205814362,-0.4615337550640106
1916,1519,-0.4368075132369995,0.6879221200942993,-998.6773681640625,1.7319228649139404,-0.24875213205814362,-0.4615337550640106
1848,1519,-0.4368075132369995,0.6879221200942993,-998.6773681640625,1.7319228649139404,-0.24875213205814362,-0.4615337550640106
1863,1519,-0.4368075132369995,0.6879221200942993,-998.6773681640625,1.7319228649139404,-0.24875213205814362,-0.4615337550640106
1839,1519,-0.4368075132369995,0.6879221200942993,-998.6773681640625,1.7319228649139404,-0.24875213205814362,-0.4615337550640106
1847,1519,-0.4368075132369995,0.6879221200942993,-998.6773681640625,1.7319228649139404,-0.24875213205814362,-0.4615337550640106
1887,1520,1.6343796253204346,4.614895820617676,-1001.2841186523438,-0.686721682548523,2.581178665161133,-1.1781619787216187
1904,1520,1.6343796253204346,4.614895820617676,-1001.2841186523438,-0.686721682548523,2.581178665161133,-1.1781619787216187
1926,1520,1.6343796253204346,4.614895820617676,-1001.2841186523438,-0.686721682548523,2.581178665161133,-1.1781619787216187
1911,1520,1.6343796253204346,4.614895820617676,-1001.2841186523438,-0.686721682548523,2.581178665161133,-1.1781619787216187
1818,1520,1.6343796253204346,4.614895820617676,-1001.2841186523438,-0.686721682548523,2.581178665161133,-1.1781619787216187
1835,1520,1.6343796253204346,4.614895820617676,-1001.2841186523438,-0.686721682548523,2.581178665161133,-1.1781619787216187
1857,1520,1.6343796253204346,4.614895820617676,-1001.2841186523438,-0.686721682548523,2.581178665161133,-1.1781619787216187
1842,1520,1.6343796253204346,4.614895820617676,-1001.2841186523438,-0.686721682548523,2.581178665161133,-1.1781619787216187
1911,1521,0.6778708100318909,-5.568456172943115,-999.7356567382812,0.19903068244457245,-0.5555497407913208,2.876866102218628
1926,1521,0.6778708100318909,-5.568456172943115,-999.7356567382812,0.19903068244457245,-0.5555497407913208,2.876866102218628
1910,1521,0.6778708100318909,-5.568456172943115,-999.7356567382812,0.19903068244457245,-0.5555497407913208,2.876866102218628
1916,1521,0.6778708100318909,-5.568456172943115,-999.7356567382812,0.19903068244457245,-0.5555497407913208,2.876866102218628
1842,1521,0.6778708100318909,-5.568456172943115,-999.7356567382812,0.19903068244457245,-0.5555497407913208,2.876866102218628
1857,1521,0.6778708100318909,-5.568456172943115,-999.7356567382812,0.19903068244457245,-0.5555497407913208,2.876866102218628
1841,1521,0.6778708100318909,-5.568456172943115,-999.7356567382812,0.19903068244457245,-0.5555497407913208,2.876866102218628
1847,1521,0.6778708100318909,-5.568456172943115,-999.7356567382812,0.19903068244457245,-0.5555497407913208,2.876866102218628
1913,1522,2.360481023788452,6.5174031257629395,-998.9594116210938,0.5315275192260742,0.3512951135635376,3.7122347354888916
1901,1522,2.360481023788452,6.5174031257629395,-998.9594116210938,0.5315275192260742,0.3512951135635376,3.7122347354888916
1897,1522,2.360481023788452,6.5174031257629395,-998.9594116210938,0.5315275192260742,0.3512951135635376,3.7122347354888916
1921,1522,2.360481023788452,6.5174031257629395,-998.9594116210938,0.5315275192260742,0.3512951135635376,3.7122347354888916
1844,1522,2.360481023788452,6.5174031257629395,-998.9594116210938,0.5315275192260742,0.3512951135635376,3.7122347354888916
1832,1522,2.360481023788452,6.5174031257629395,-998.9594116210938,0.5315275192260742,0.3512951135635376,3.7122347354888916
1828,1522,2.360481023788452,6.5174031257629395,-998.9594116210938,0.5315275192260742,0.3512951135635376,3.7122347354888916
1852,1522,2.360481023788452,6.5174031257629395,-998.9594116210938,0.5315275192260742,0.3512951135635376,3.7122347354888916
1911,1523,-3.4008851051330566,-3.9214138984680176,-1001.8193359375,1.670123815536499,-3.0390260219573975,0.14485666155815125
1916,1523,-3.4008851051330566,-3.9214138984680176,-1001.8193359375,1.670123815536499,-3.0390260219573975,0.14485666155815125
1908,1523,-3.4008851051330566,-3.9214138984680176,-1001.8193359375,1.670123815536499,-3.0390260219573975,0.14485666155815125
1925,1523,-3.4008851051330566,-3.9214138984680176,-1001.8193359375,1.670123815536499,-3.0390260219573975,0.14485666155815125
1842,1523,-3.4008851051330566,-3.9214138984680176,-1001.8193359375,1.670123815536499,-3.0390260219573975,0.14485666155815125
1847,1523,-3.4008851051330566,-3.9214138984680176,-1001.8193359375,1.670123815536499,-3.0390260219573975,0.14485666155815125
1839,1523,-3.4008851051330566,-3.9214138984680176,-1001.8193359375,1.670123815536499,-3.0390260219573975,0.14485666155815125
1856,1523,-3.4008851051330566,-3.9214138984680176,-1001.8193359375,1.670123815536499,-3.0390260219573975,0.14485666155815125
1889,1524,2.0196380615234375,5.405091285705566,-998.9153442382812,0.04083529859781265,0.4097626209259033,0.3396863341331482
1920,1524,2.0196380615234375,5.405091285705566,-998.9153442382812,0.04083529859781265,0.4097626209259033,0.3396863341331482
1927,1524,2.0196380615234375,5.405091285705566,-998.9153442382812,0.04083529859781265,0.4097626209259033,0.3396863341331482
1910,1524,2.0196380615234375,5.405091285705566,-998.9153442382812,0.04083529859781265,0.4097626209259033,0.3396863341331482
1820,1524,2.0196380615234375,5.405091285705566,-998.9153442382812,0.04083529859781265,0.4097626209259033,0.3396863341331482
1851,1524,2.0196380615234375,5.405091285705566,-998.9153442382812,0.04083529859781265,0.4097626209259033,0.3396863341331482
1858,1524,2.0196380615234375,5.405091285705566,-998.9153442382812,0.04083529859781265,0.4097626209259033,0.3396863341331482
1841,1524,2.0196380615234375,5.405091285705566,-998.9153442382812,0.04083529859781265,0.4097626209259033,0.3396863341331482
1931,1525,-2.3991589546203613,-4.067215442657471,-999.2086791992188,-0.2508256435394287,1.6226367950439453,-1.2154440879821777
1913,1525,-2.3991589546203613,-4.067215442657471,-999.2086791992188,-0.2508256435394287,1.6226367950439453,-1.2154440879821777
1898,1525,-2.3991589546203613,-4.067215442657471,-999.2086791992188,-0.2508256435394287,1.6226367950439453,-1.2154440879821777
1919,1525,-2.3991589546203613,-4.067215442657471,-999.2086791992188,-0.2508256435394287,1.6226367950439453,-1.2154440879821777
1862,1525,-2.3991589546203613,-4.067215442657471,-999.2086791992188,-0.2508256435394287,1.6226367950439453,-1.2154440879821777
1844,1525,-2.3991589546203613,-4.067215442657471,-999.2086791992188,-0.2508256435394287,1.6226367950439453,-1.2154440879821777
1829,1525,-2.3991589546203613,-4.067215442657471,-999.2086791992188,-0.2508256435394287,1.6226367950439453,-1.2154440879821777
1850,1525,-2.3991589546203613,-4.067215442657471,-999.2086791992188,-0.2508256435394287,1.6226367950439453,-1.2154440879821777
1907,1526,-5.936491966247559,0.4206366539001465,-1000.7446899414062,-0.39418449997901917,3.978614330291748,0.7421271204948425
1929,1526,-5.936491966247559,0.4206366539001465,-1000.7446899414062,-0.39418449997901917,3.978614330291748,0.7421271204948425
1914,1526,-5.936491966247559,0.4206366539001465,-1000.7446899414062,-0.39418449997901917,3.978614330291748,0.7421271204948425
1918,1526,-5.936491966247559,0.4206366539001465,-1000.7446899414062,-0.39418449997901917,3.978614330291748,0.7421271204948425
1838,1526,-5.936491966247559,0.4206366539001465,-1000.7446899414062,-0.39418449997901917,3.978614330291748,0.7421271204948425
1860,1526,-5.936491966247559,0.4206366539001465,-1000.7446899414062,-0.39418449997901917,3.978614330291748,0.7421271204948425
1845,1526,-5.936491966247559,0.4206366539001465,-1000.7446899414062,-0.39418449997901917,3.978614330291748,0.7421271204948425
1849,1526,-5.936491966247559,0.4206366539001465,-1000.7446899414062,-0.39418449997901917,3.978614330291748,0.7421271204948425
1930,1527,1.19631826877594,0.9669819474220276,-1003.0514526367188,-2.5129666328430176,-1.5803688764572144,0.4384566843509674
1902,1527,1.19631826877594,0.9669819474220276,-1003.0514526367188,-2.5129666328430176,-1.5803688764572144,0.4384566843509674
1895,1527,1.19631826877594,0.9669819474220276,-1003.0514526367188,-2.5129666328430176,-1.5803688764572144,0.4384566843509674
1909,1527,1.19631826877594,0.9669819474220276,-1003.0514526367188,-2.5129666328430176,-1.5803688764572144,0.4384566843509674
1861,1527,1.19631826877594,0.9669819474220276,-1003.0514526367188,-2.5129666328430176,-1.5803688764572144,0.4384566843509674
1833,1527,1.19631826877594,0.9669819474220276,-1003.0514526367188,-2.5129666328430176,-1.5803688764572144,0.4384566843509674
1826,1527,1.19631826877594,0.9669819474220276,-1003.0514526367188,-2.5129666328430176,-1.5803688764572144,0.4384566843509674
1840,1527,1.19631826877594,0.9669819474220276,-1003.0514526367188,-2.5129666328430176,-1.5803688764572144,0.4384566843509674
1919,1528,1.1289860010147095,-0.8828738331794739,-999.9205322265625,1.7878265380859375,-0.7536143064498901,0.8268256783485413
1918,1528,1.1289860010147095,-0.8828738331794739,-999.9205322265625,1.7878265380859375,-0.7536143064498901,0.8268256783485413
1909,1528,1.1289860010147095,-0.8828738331794739,-999.9205322265625,1.7878265380859375,-0.7536143064498901,0.8268256783485413
1931,1528,1.1289860010147095,-0.8828738331794739,-999.9205322265625,1.7878265380859375,-0.7536143064498901,0.8268256783485413
1850,1528,1.1289860010147095,-0.8828738331794739,-999.9205322265625,1.7878265380859375,-0.7536143064498901,0.8268256783485413
1849,1528,1.1289860010147095,-0.8828738331794739,-999.9205322265625,1.7878265380859375,-0.7536143064498901,0.8268256783485413
1840,1528,1.1289860010147095,-0.8828738331794739,-999.9205322265625,1.7878265380859375,-0.7536143064498901,0.8268256783485413
1862,1528,1.1289860010147095,-0.8828738331794739,-999.9205322265625,1.7878265380859375,-0.7536143064498901,0.8268256783485413
1919,1529,2.5584263801574707,4.065806865692139,-999.6818237304688,0.07705318927764893,4.485165119171143,0.14638228714466095
1924,1529,2.5584263801574707,4.065806865692139,-999.6818237304688,0.07705318927764893,4.485165119171143,0.14638228714466095
1917,1529,2.5584263801574707,4.065806865692139,-999.6818237304688,0.07705318927764893,4.485165119171143,0.14638228714466095
1916,1529,2.5584263801574707,4.065806865692139,-999.6818237304688,0.07705318927764893,4.485165119171143,0.14638228714466095
1850,1529,2.5584263801574707,4.065806865692139,-999.6818237304688,0.07705318927764893,4.485165119171143,0.14638228714466095
1855,1529,2.5584263801574707,4.065806865692139,-999.6818237304688,0.07705318927764893,4.485165119171143,0.14638228714466095
1848,1529,2.5584263801574707,4.065806865692139,-999.6818237304688,0.07705318927764893,4.485165119171143,0.14638228714466095
1847,1529,2.5584263801574707,4.065806865692139,-999.6818237304688,0.07705318927764893,4.485165119171143,0.14638228714466095
1909,1530,-4.130080223083496,-3.0810513496398926,-999.8133544921875,1.0325641632080078,1.1248791217803955,-3.9774222373962402
1918,1530,-4.130080223083496,-3.0810513496398926,-999.8133544921875,1.0325641632080078,1.1248791217803955,-3.9774222373962402
1914,1530,-4.130080223083496,-3.0810513496398926,-999.8133544921875,1.0325641632080078,1.1248791217803955,-3.9774222373962402
1930,1530,-4.130080223083496,-3.0810513496398926,-999.8133544921875,1.0325641632080078,1.1248791217803955,-3.9774222373962402
1840,1530,-4.130080223083496,-3.0810513496398926,-999.8133544921875,1.0325641632080078,1.1248791217803955,-3.9774222373962402
1849,1530,-4.130080223083496,-3.0810513496398926,-999.8133544921875,1.0325641632080078,1.1248791217803955,-3.9774222373962402
1845,1530,-4.130080223083496,-3.0810513496398926,-999.8133544921875,1.0325641632080078,1.1248791217803955,-3.9774222373962402
1861,1530,-4.130080223083496,-3.0810513496398926,-999.8133544921875,1.0325641632080078,1.1248791217803955,-3.9774222373962402
1920,1531,-0.8358676433563232,-1.8459736108779907,-1000.1295166015625,-0.8618332147598267,0.34189942479133606,-0.04077024385333061
1874,1531,-0.8358676433563232,-1.8459736108779907,-1000.1295166015625,-0.8618332147598267,0.34189942479133606,-0.04077024385333061
1873,1531,-0.8358676433563232,-1.8459736108779907,-1000.1295166015625,-0.8618332147598267,0.34189942479133606,-0.04077024385333061
1890,1531,-0.8358676433563232,-1.8459736108779907,-1000.1295166015625,-0.8618332147598267,0.34189942479133606,-0.04077024385333061
1851,1531,-0.8358676433563232,-1.8459736108779907,-1000.1295166015625,-0.8618332147598267,0.34189942479133606,-0.04077024385333061
1805,1531,-0.8358676433563232,-1.8459736108779907,-1000.1295166015625,-0.8618332147598267,0.34189942479133606,-0.04077024385333061
1804,1531,-0.8358676433563232,-1.8459736108779907,-1000.1295166015625,-0.8618332147598267,0.34189942479133606,-0.04077024385333061
1821,1531,-0.8358676433563232,-1.8459736108779907,-1000.1295166015625,-0.8618332147598267,0.34189942479133606,-0.04077024385333061
1922,1532,-1.7634155750274658,-1.729414939880371,-1000.3975219726562,-0.8754398822784424,0.08983229100704193,0.0482688844203949
1865,1532,-1.7634155750274658,-1.729414939880371,-1000.3975219726562,-0.8754398822784424,0.08983229100704193,0.0482688844203949
1880,1532,-1.7634155750274658,-1.729414939880371,-1000.3975219726562,-0.8754398822784424,0.08983229100704193,0.0482688844203949
1900,1532,-1.7634155750274658,-1.729414939880371,-1000.3975219726562,-0.8754398822784424,0.08983229100704193,0.0482688844203949
1853,1532,-1.7634155750274658,-1.729414939880371,-1000.3975219726562,-0.8754398822784424,0.08983229100704193,0.0482688844203949
1796,1532,-1.7634155750274658,-1.729414939880371,-1000.3975219726562,-0.8754398822784424,0.08983229100704193,0.0482688844203949
1811,1532,-1.7634155750274658,-1.729414939880371,-1000.3975219726562,-0.8754398822784424,0.08983229100704193,0.0482688844203949
1831,1532,-1.7634155750274658,-1.729414939880371,-1000.3975219726562,-0.8754398822784424,0.08983229100704193,0.0482688844203949
1899,1533,1.2311444282531738,0.0745612159371376,-1002.9806518554688,1.319409966468811,2.1026346683502197,-1.709585189819336
1923,1533,1.2311444282531738,0.0745612159371376,-1002.9806518554688,1.319409966468811,2.1026346683502197,-1.709585189819336
1912,1533,1.2311444282531738,0.0745612159371376,-1002.9806518554688,1.319409966468811,2.1026346683502197,-1.709585189819336
1900,1533,1.2311444282531738,0.0745612159371376,-1002.9806518554688,1.319409966468811,2.1026346683502197,-1.709585189819336
1830,1533,1.2311444282531738,0.0745612159371376,-1002.9806518554688,1.319409966468811,2.1026346683502197,-1.709585189819336
1854,1533,1.2311444282531738,0.0745612159371376,-1002.9806518554688,1.319409966468811,2.1026346683502197,-1.709585189819336
1843,1533,1.2311444282531738,0.0745612159371376,-1002.9806518554688,1.319409966468811,2.1026346683502197,-1.709585189819336
1831,1533,1.2311444282531738,0.0745612159371376,-1002.9806518554688,1.319409966468811,2.1026346683502197,-1.709585189819336
1923,1534,-6.268033981323242,-3.5156025886535645,-1001.6795654296875,-0.46440285444259644,-4.713635444641113,2.775872230529785
1906,1534,-6.268033981323242,-3.5156025886535645,-1001.6795654296875,-0.46440285444259644,-4.713635444641113,2.775872230529785
1932,1534,-6.268033981323242,-3.5156025886535645,-1001.6795654296875,-0.46440285444259644,-4.713635444641113,2.775872230529785
1917,1534,-6.268033981323242,-3.5156025886535645,-1001.6795654296875,-0.46440285444259644,-4.713635444641113,2.775872230529785
1854,1534,-6.268033981323242,-3.5156025886535645,-1001.6795654296875,-0.46440285444259644,-4.713635444641113,2.775872230529785
1837,1534,-6.268033981323242,-3.5156025886535645,-1001.6795654296875,-0.46440285444259644,-4.713635444641113,2.775872230529785
1863,1534,-6.268033981323242,-3.5156025886535645,-1001.6795654296875,-0.46440285444259644,-4.713635444641113,2.775872230529785
1848,1534,-6.268033981323242,-3.5156025886535645,-1001.6795654296875,-0.46440285444259644,-4.713635444641113,2.775872230529785
1925,1535,2.2408182621002197,5.4662089347839355,-996.278076171875,-1.2115124464035034,0.1240391656756401,-0.5208296179771423
1886,1535,2.2408182621002197,5.4662089347839355,-996.278076171875,-1.2115124464035034,0.1240391656756401,-0.5208296179771423
1887,1535,2.2408182621002197,5.4662089347839355,-996.278076171875,-1.2115124464035034,0.1240391656756401,-0.5208296179771423
1911,1535,2.2408182621002197,5.4662089347839355,-996.278076171875,-1.2115124464035034,0.1240391656756401,-0.5208296179771423
1856,1535,2.2408182621002197,5.4662089347839355,-996.278076171875,-1.2115124464035034,0.1240391656756401,-0.5208296179771423
1817,1535,2.2408182621002197,5.4662089347839355,-996.278076171875,-1.2115124464035034,0.1240391656756401,-0.5208296179771423
1818,1535,2.2408182621002197,5.4662089347839355,-996.278076171875,-1.2115124464035034,0.1240391656756401,-0.5208296179771423
1842,1535,2.2408182621002197,5.4662089347839355,-996.278076171875,-1.2115124464035034,0.1240391656756401,-0.5208296179771423
1926,1536,0.9281624555587769,4.925806045532227,-999.7879638671875,0.23665545880794525,-1.960589051246643,-1.2415332794189453
1904,1536,0.9281624555587769,4.925806045532227,-999.7879638671875,0.23665545880794525,-1.960589051246643,-1.2415332794189453
1889,1536,0.9281624555587769,4.925806045532227,-999.7879638671875,0.23665545880794525,-1.960589051246643,-1.2415332794189453
1910,1536,0.9281624555587769,4.925806045532227,-999.7879638671875,0.23665545880794525,-1.960589051246643,-1.2415332794189453
1857,1536,0.9281624555587769,4.925806045532227,-999.7879638671875,0.23665545880794525,-1.960589051246643,-1.2415332794189453
1835,1536,0.9281624555587769,4.925806045532227,-999.7879638671875,0.23665545880794525,-1.960589051246643,-1.2415332794189453
1820,1536,0.9281624555587769,4.925806045532227,-999.7879638671875,0.23665545880794525,-1.960589051246643,-1.2415332794189453
1841,1536,0.9281624555587769,4.925806045532227,-999.7879638671875,0.23665545880794525,-1.960589051246643,-1.2415332794189453
1928,1537,3.960205554962158,1.2406432628631592,-1000.6840209960938,0.6391456723213196,-2.2117867469787598,-0.505607008934021
1903,1537,3.960205554962158,1.2406432628631592,-1000.6840209960938,0.6391456723213196,-2.2117867469787598,-0.505607008934021
1892,1537,3.960205554962158,1.2406432628631592,-1000.6840209960938,0.6391456723213196,-2.2117867469787598,-0.505607008934021
1907,1537,3.960205554962158,1.2406432628631592,-1000.6840209960938,0.6391456723213196,-2.2117867469787598,-0.505607008934021
1859,1537,3.960205554962158,1.2406432628631592,-1000.6840209960938,0.6391456723213196,-2.2117867469787598,-0.505607008934021
1834,1537,3.960205554962158,1.2406432628631592,-1000.6840209960938,0.6391456723213196,-2.2117867469787598,-0.505607008934021
1823,1537,3.960205554962158,1.2406432628631592,-1000.6840209960938,0.6391456723213196,-2.2117867469787598,-0.505607008934021
1838,1537,3.960205554962158,1.2406432628631592,-1000.6840209960938,0.6391456723213196,-2.2117867469787598,-0.505607008934021
1929,1538,4.372438907623291,1.0207924842834473,-1002.3739624023438,-0.44683656096458435,-2.701719284057617,1.1720433235168457
1893,1538,4.372438907623291,1.0207924842834473,-1002.3739624023438,-0.44683656096458435,-2.701719284057617,1.1720433235168457
1894,1538,4.372438907623291,1.0207924842834473,-1002.3739624023438,-0.44683656096458435,-2.701719284057617,1.1720433235168457
1914,1538,4.372438907623291,1.0207924842834473,-1002.3739624023438,-0.44683656096458435,-2.701719284057617,1.1720433235168457
1860,1538,4.372438907623291,1.0207924842834473,-1002.3739624023438,-0.44683656096458435,-2.701719284057617,1.1720433235168457
1824,1538,4.372438907623291,1.0207924842834473,-1002.3739624023438,-0.44683656096458435,-2.701719284057617,1.1720433235168457
1825,1538,4.372438907623291,1.0207924842834473,-1002.3739624023438,-0.44683656096458435,-2.701719284057617,1.1720433235168457
1845,1538,4.372438907623291,1.0207924842834473,-1002.3739624023438,-0.44683656096458435,-2.701719284057617,1.1720433235168457
1931,1539,0.15135274827480316,1.7098044157028198,-1001.2853393554688,-1.4179917573928833,-1.3788297176361084,-1.0645924806594849
1896,1539,0.15135274827480316,1.7098044157028198,-1001.2853393554688,-1.4179917573928833,-1.3788297176361084,-1.0645924806594849
1901,1539,0.15135274827480316,1.7098044157028198,-1001.2853393554688,-1.4179917573928833,-1.3788297176361084,-1.0645924806594849
1913,1539,0.15135274827480316,1.7098044157028198,-1001.2853393554688,-1.4179917573928833,-1.3788297176361084,-1.0645924806594849
1862,1539,0.15135274827480316,1.7098044157028198,-1001.2853393554688,-1.4179917573928833,-1.3788297176361084,-1.0645924806594849
1827,1539,0.15135274827480316,1.7098044157028198,-1001.2853393554688,-1.4179917573928833,-1.3788297176361084,-1.0645924806594849
1832,1539,0.15135274827480316,1.7098044157028198,-1001.2853393554688,-1.4179917573928833,-1.3788297176361084,-1.0645924806594849
1844,1539,0.15135274827480316,1.7098044157028198,-1001.2853393554688,-1.4179917573928833,-1.3788297176361084,-1.0645924806594849
1956,1540,1.5636308193206787,3.3883678913116455,-1000.5288696289062,-0.6168209314346313,1.0290372371673584,-0.5278116464614868
1945,1540,1.5636308193206787,3.3883678913116455,-1000.5288696289062,-0.6168209314346313,1.0290372371673584,-0.5278116464614868
1944,1540,1.5636308193206787,3.3883678913116455,-1000.5288696289062,-0.6168209314346313,1.0290372371673584,-0.5278116464614868
1973,1540,1.5636308193206787,3.3883678913116455,-1000.5288696289062,-0.6168209314346313,1.0290372371673584,-0.5278116464614868
1887,1540,1.5636308193206787,3.3883678913116455,-1000.5288696289062,-0.6168209314346313,1.0290372371673584,-0.5278116464614868
1876,1540,1.5636308193206787,3.3883678913116455,-1000.5288696289062,-0.6168209314346313,1.0290372371673584,-0.5278116464614868
1875,1540,1.5636308193206787,3.3883678913116455,-1000.5288696289062,-0.6168209314346313,1.0290372371673584,-0.5278116464614868
1904,1540,1.5636308193206787,3.3883678913116455,-1000.5288696289062,-0.6168209314346313,1.0290372371673584,-0.5278116464614868
1973,1541,1.302416205406189,3.412562847137451,-1000.3690795898438,0.13490889966487885,-0.7703744173049927,-0.6005432605743408
1944,1541,1.302416205406189,3.412562847137451,-1000.3690795898438,0.13490889966487885,-0.7703744173049927,-0.6005432605743408
1953,1541,1.302416205406189,3.412562847137451,-1000.3690795898438,0.13490889966487885,-0.7703744173049927,-0.6005432605743408
1958,1541,1.302416205406189,3.412562847137451,-1000.3690795898438,0.13490889966487885,-0.7703744173049927,-0.6005432605743408
1904,1541,1.302416205406189,3.412562847137451,-1000.3690795898438,0.13490889966487885,-0.7703744173049927,-0.6005432605743408
1875,1541,1.302416205406189,3.412562847137451,-1000.3690795898438,0.13490889966487885,-0.7703744173049927,-0.6005432605743408
1884,1541,1.302416205406189,3.412562847137451,-1000.3690795898438,0.13490889966487885,-0.7703744173049927,-0.6005432605743408
1889,1541,1.302416205406189,3.412562847137451,-1000.3690795898438,0.13490889966487885,-0.7703744173049927,-0.6005432605743408
1954,1542,3.4386370182037354,2.7374298572540283,-999.5259399414062,-1.243645429611206,0.5277094841003418,-0.16565224528312683
1974,1542,3.4386370182037354,2.7374298572540283,-999.5259399414062,-1.243645429611206,0.5277094841003418,-0.16565224528312683
1957,1542,3.4386370182037354,2.7374298572540283,-999.5259399414062,-1.243645429611206,0.5277094841003418,-0.16565224528312683
1947,1542,3.4386370182037354,2.7374298572540283,-999.5259399414062,-1.243645429611206,0.5277094841003418,-0.16565224528312683
1885,1542,3.4386370182037354,2.7374298572540283,-999.5259399414062,-1.243645429611206,0.5277094841003418,-0.16565224528312683
1905,1542,3.4386370182037354,2.7374298572540283,-999.5259399414062,-1.243645429611206,0.5277094841003418,-0.16565224528312683
1888,1542,3.4386370182037354,2.7374298572540283,-999.5259399414062,-1.243645429611206,0.5277094841003418,-0.16565224528312683
1878,1542,3.4386370182037354,2.7374298572540283,-999.5259399414062,-1.243645429611206,0.5277094841003418,-0.16565224528312683
1945,1543,1.5005806684494019,3.2505156993865967,-999.38720703125,-0.6719311475753784,-0.04624612256884575,-0.3276608884334564
1956,1543,1.5005806684494019,3.2505156993865967,-999.38720703125,-0.6719311475753784,-0.04624612256884575,-0.3276608884334564
1955,1543,1.5005806684494019,3.2505156993865967,-999.38720703125,-0.6719311475753784,-0.04624612256884575,-0.3276608884334564
1946,1543,1.5005806684494019,3.2505156993865967,-999.38720703125,-0.6719311475753784,-0.04624612256884575,-0.3276608884334564
1876,1543,1.5005806684494019,3.2505156993865967,-999.38720703125,-0.6719311475753784,-0.04624612256884575,-0.3276608884334564
1887,1543,1.5005806684494019,3.2505156993865967,-999.38720703125,-0.6719311475753784,-0.04624612256884575,-0.3276608884334564
1886,1543,1.5005806684494019,3.2505156993865967,-999.38720703125,-0.6719311475753784,-0.04624612256884575,-0.3276608884334564
1877,1543,1.5005806684494019,3.2505156993865967,-999.38720703125,-0.6719311475753784,-0.04624612256884575,-0.3276608884334564
1984,1544,4.687231540679932,4.4213972091674805,-999.24365234375,1.71650230884552,-2.782956838607788,-4.169759273529053
1997,1544,4.687231540679932,4.4213972091674805,-999.24365234375,1.71650230884552,-2.782956838607788,-4.169759273529053
1976,1544,4.687231540679932,4.4213972091674805,-999.24365234375,1.71650230884552,-2.782956838607788,-4.169759273529053
1987,1544,4.687231540679932,4.4213972091674805,-999.24365234375,1.71650230884552,-2.782956838607788,-4.169759273529053
1915,1544,4.687231540679932,4.4213972091674805,-999.24365234375,1.71650230884552,-2.782956838607788,-4.169759273529053
1928,1544,4.687231540679932,4.4213972091674805,-999.24365234375,1.71650230884552,-2.782956838607788,-4.169759273529053
1907,1544,4.687231540679932,4.4213972091674805,-999.24365234375,1.71650230884552,-2.782956838607788,-4.169759273529053
1918,1544,4.687231540679932,4.4213972091674805,-999.24365234375,1.71650230884552,-2.782956838607788,-4.169759273529053
2000,1545,-2.5354506969451904,-4.043777942657471,-1002.3820190429688,0.952853798866272,-1.6917898654937744,-1.4030011892318726
1978,1545,-2.5354506969451904,-4.043777942657471,-1002.3820190429688,0.952853798866272,-1.6917898654937744,-1.4030011892318726
1964,1545,-2.5354506969451904,-4.043777942657471,-1002.3820190429688,0.952853798866272,-1.6917898654937744,-1.4030011892318726
1965,1545,-2.5354506969451904,-4.043777942657471,-1002.3820190429688,0.952853798866272,-1.6917898654937744,-1.4030011892318726
1931,1545,-2.5354506969451904,-4.043777942657471,-1002.3820190429688,0.952853798866272,-1.6917898654937744,-1.4030011892318726
1909,1545,-2.5354506969451904,-4.043777942657471,-1002.3820190429688,0.952853798866272,-1.6917898654937744,-1.4030011892318726
1895,1545,-2.5354506969451904,-4.043777942657471,-1002.3820190429688,0.952853798866272,-1.6917898654937744,-1.4030011892318726
1896,1545,-2.5354506969451904,-4.043777942657471,-1002.3820190429688,0.952853798866272,-1.6917898654937744,-1.4030011892318726
1988,1546,-1.1725729703903198,-2.1348652839660645,-1001.692138671875,0.6570723652839661,2.7461600303649902,0.940024733543396
1985,1546,-1.1725729703903198,-2.1348652839660645,-1001.692138671875,0.6570723652839661,2.7461600303649902,0.940024733543396
1984,1546,-1.1725729703903198,-2.1348652839660645,-1001.692138671875,0.6570723652839661,2.7461600303649902,0.940024733543396
1987,1546,-1.1725729703903198,-2.1348652839660645,-1001.692138671875,0.6570723652839661,2.7461600303649902,0.940024733543396
1919,1546,-1.1725729703903198,-2.1348652839660645,-1001.692138671875,0.6570723652839661,2.7461600303649902,0.940024733543396
1916,1546,-1.1725729703903198,-2.1348652839660645,-1001.692138671875,0.6570723652839661,2.7461600303649902,0.940024733543396
1915,1546,-1.1725729703903198,-2.1348652839660645,-1001.692138671875,0.6570723652839661,2.7461600303649902,0.940024733543396
1918,1546,-1.1725729703903198,-2.1348652839660645,-1001.692138671875,0.6570723652839661,2.7461600303649902,0.940024733543396
1979,1547,4.851050853729248,6.753383159637451,-998.6260986328125,1.3870172500610352,-3.186795711517334,0.1172415092587471
1996,1547,4.851050853729248,6.753383159637451,-998.6260986328125,1.3870172500610352,-3.186795711517334,0.1172415092587471
1984,1547,4.851050853729248,6.753383159637451,-998.6260986328125,1.3870172500610352,-3.186795711517334,0.1172415092587471
1985,1547,4.851050853729248,6.753383159637451,-998.6260986328125,1.3870172500610352,-3.186795711517334,0.1172415092587471
1910,1547,4.851050853729248,6.753383159637451,-998.6260986328125,1.3870172500610352,-3.186795711517334,0.1172415092587471
1927,1547,4.851050853729248,6.753383159637451,-998.6260986328125,1.3870172500610352,-3.186795711517334,0.1172415092587471
1915,1547,4.851050853729248,6.753383159637451,-998.6260986328125,1.3870172500610352,-3.186795711517334,0.1172415092587471
1916,1547,4.851050853729248,6.753383159637451,-998.6260986328125,1.3870172500610352,-3.186795711517334,0.1172415092587471
1959,1548,-2.1161885261535645,-1.9114328622817993,-1000.1784057617188,-2.1494619846343994,-1.1680151224136353,1.6016104221343994
1972,1548,-2.1161885261535645,-1.9114328622817993,-1000.1784057617188,-2.1494619846343994,-1.1680151224136353,1.6016104221343994
1997,1548,-2.1161885261535645,-1.9114328622817993,-1000.1784057617188,-2.1494619846343994,-1.1680151224136353,1.6016104221343994
1984,1548,-2.1161885261535645,-1.9114328622817993,-1000.1784057617188,-2.1494619846343994,-1.1680151224136353,1.6016104221343994
1890,1548,-2.1161885261535645,-1.9114328622817993,-1000.1784057617188,-2.1494619846343994,-1.1680151224136353,1.6016104221343994
1903,1548,-2.1161885261535645,-1.9114328622817993,-1000.1784057617188,-2.1494619846343994,-1.1680151224136353,1.6016104221343994
1928,1548,-2.1161885261535645,-1.9114328622817993,-1000.1784057617188,-2.1494619846343994,-1.1680151224136353,1.6016104221343994
1915,1548,-2.1161885261535645,-1.9114328622817993,-1000.1784057617188,-2.1494619846343994,-1.1680151224136353,1.6016104221343994
1999,1549,-7.4028520584106445,-2.631380796432495,-1004.218994140625,1.256287932395935,0.043389271944761276,-2.4405667781829834
1983,1549,-7.4028520584106445,-2.631380796432495,-1004.218994140625,1.256287932395935,0.043389271944761276,-2.4405667781829834
1963,1549,-7.4028520584106445,-2.631380796432495,-1004.218994140625,1.256287932395935,0.043389271944761276,-2.4405667781829834
1971,1549,-7.4028520584106445,-2.631380796432495,-1004.218994140625,1.256287932395935,0.043389271944761276,-2.4405667781829834
1930,1549,-7.4028520584106445,-2.631380796432495,-1004.218994140625,1.256287932395935,0.043389271944761276,-2.4405667781829834
1914,1549,-7.4028520584106445,-2.631380796432495,-1004.218994140625,1.256287932395935,0.043389271944761276,-2.4405667781829834
1894,1549,-7.4028520584106445,-2.631380796432495,-1004.218994140625,1.256287932395935,0.043389271944761276,-2.4405667781829834
1902,1549,-7.4028520584106445,-2.631380796432495,-1004.218994140625,1.256287932395935,0.043389271944761276,-2.4405667781829834
1993,1550,4.040613174438477,3.5309135913848877,-997.3907470703125,1.9405105113983154,3.7392995357513428,-3.14298152923584
1988,1550,4.040613174438477,3.5309135913848877,-997.3907470703125,1.9405105113983154,3.7392995357513428,-3.14298152923584
1967,1550,4.040613174438477,3.5309135913848877,-997.3907470703125,1.9405105113983154,3.7392995357513428,-3.14298152923584
1981,1550,4.040613174438477,3.5309135913848877,-997.3907470703125,1.9405105113983154,3.7392995357513428,-3.14298152923584
1924,1550,4.040613174438477,3.5309135913848877,-997.3907470703125,1.9405105113983154,3.7392995357513428,-3.14298152923584
1919,1550,4.040613174438477,3.5309135913848877,-997.3907470703125,1.9405105113983154,3.7392995357513428,-3.14298152923584
1898,1550,4.040613174438477,3.5309135913848877,-997.3907470703125,1.9405105113983154,3.7392995357513428,-3.14298152923584
1912,1550,4.040613174438477,3.5309135913848877,-997.3907470703125,1.9405105113983154,3.7392995357513428,-3.14298152923584
1967,1551,0.021941035985946655,-0.1014874130487442,-998.8632202148438,-1.859636902809143,0.12312957644462585,3.287806510925293
1982,1551,0.021941035985946655,-0.1014874130487442,-998.8632202148438,-1.859636902809143,0.12312957644462585,3.287806510925293
1990,1551,0.021941035985946655,-0.1014874130487442,-998.8632202148438,-1.859636902809143,0.12312957644462585,3.287806510925293
1991,1551,0.021941035985946655,-0.1014874130487442,-998.8632202148438,-1.859636902809143,0.12312957644462585,3.287806510925293
1898,1551,0.021941035985946655,-0.1014874130487442,-998.8632202148438,-1.859636902809143,0.12312957644462585,3.287806510925293
1913,1551,0.021941035985946655,-0.1014874130487442,-998.8632202148438,-1.859636902809143,0.12312957644462585,3.287806510925293
1921,1551,0.021941035985946655,-0.1014874130487442,-998.8632202148438,-1.859636902809143,0.12312957644462585,3.287806510925293
1922,1551,0.021941035985946655,-0.1014874130487442,-998.8632202148438,-1.859636902809143,0.12312957644462585,3.287806510925293
1974,1552,-2.77121901512146,-2.431812047958374,-996.2972412109375,2.2080001831054688,-2.3806817531585693,0.0652596652507782
1955,1552,-2.77121901512146,-2.431812047958374,-996.2972412109375,2.2080001831054688,-2.3806817531585693,0.0652596652507782
1994,1552,-2.77121901512146,-2.431812047958374,-996.2972412109375,2.2080001831054688,-2.3806817531585693,0.0652596652507782
1977,1552,-2.77121901512146,-2.431812047958374,-996.2972412109375,2.2080001831054688,-2.3806817531585693,0.0652596652507782
1905,1552,-2.77121901512146,-2.431812047958374,-996.2972412109375,2.2080001831054688,-2.3806817531585693,0.0652596652507782
1886,1552,-2.77121901512146,-2.431812047958374,-996.2972412109375,2.2080001831054688,-2.3806817531585693,0.0652596652507782
1925,1552,-2.77121901512146,-2.431812047958374,-996.2972412109375,2.2080001831054688,-2.3806817531585693,0.0652596652507782
1908,1552,-2.77121901512146,-2.431812047958374,-996.2972412109375,2.2080001831054688,-2.3806817531585693,0.0652596652507782
2001,1553,-3.8014919757843018,-2.1675355434417725,-1003.5437622070312,1.9824813604354858,-1.0551528930664062,-0.6694486141204834
1957,1553,-3.8014919757843018,-2.1675355434417725,-1003.5437622070312,1.9824813604354858,-1.0551528930664062,-0.6694486141204834
1974,1553,-3.8014919757843018,-2.1675355434417725,-1003.5437622070312,1.9824813604354858,-1.0551528930664062,-0.6694486141204834
1977,1553,-3.8014919757843018,-2.1675355434417725,-1003.5437622070312,1.9824813604354858,-1.0551528930664062,-0.6694486141204834
1932,1553,-3.8014919757843018,-2.1675355434417725,-1003.5437622070312,1.9824813604354858,-1.0551528930664062,-0.6694486141204834
1888,1553,-3.8014919757843018,-2.1675355434417725,-1003.5437622070312,1.9824813604354858,-1.0551528930664062,-0.6694486141204834
1905,1553,-3.8014919757843018,-2.1675355434417725,-1003.5437622070312,1.9824813604354858,-1.0551528930664062,-0.6694486141204834
1908,1553,-3.8014919757843018,-2.1675355434417725,-1003.5437622070312,1.9824813604354858,-1.0551528930664062,-0.6694486141204834
1961,1554,-6.168384552001953,-1.216370940208435,-1001.7401733398438,-0.9972608089447021,2.047036647796631,2.3484156131744385
1962,1554,-6.168384552001953,-1.216370940208435,-1001.7401733398438,-0.9972608089447021,2.047036647796631,2.3484156131744385
1998,1554,-6.168384552001953,-1.216370940208435,-1001.7401733398438,-0.9972608089447021,2.047036647796631,2.3484156131744385
1976,1554,-6.168384552001953,-1.216370940208435,-1001.7401733398438,-0.9972608089447021,2.047036647796631,2.3484156131744385
1892,1554,-6.168384552001953,-1.216370940208435,-1001.7401733398438,-0.9972608089447021,2.047036647796631,2.3484156131744385
1893,1554,-6.168384552001953,-1.216370940208435,-1001.7401733398438,-0.9972608089447021,2.047036647796631,2.3484156131744385
1929,1554,-6.168384552001953,-1.216370940208435,-1001.7401733398438,-0.9972608089447021,2.047036647796631,2.3484156131744385
1907,1554,-6.168384552001953,-1.216370940208435,-1001.7401733398438,-0.9972608089447021,2.047036647796631,2.3484156131744385
1946,1555,2.4516608715057373,2.220883369445801,-1000.9010009765625,-1.1985652446746826,0.8110504746437073,-0.20321811735630035
1955,1555,2.4516608715057373,2.220883369445801,-1000.9010009765625,-1.1985652446746826,0.8110504746437073,-0.20321811735630035
1974,1555,2.4516608715057373,2.220883369445801,-1000.9010009765625,-1.1985652446746826,0.8110504746437073,-0.20321811735630035
1954,1555,2.4516608715057373,2.220883369445801,-1000.9010009765625,-1.1985652446746826,0.8110504746437073,-0.20321811735630035
1877,1555,2.4516608715057373,2.220883369445801,-1000.9010009765625,-1.1985652446746826,0.8110504746437073,-0.20321811735630035
1886,1555,2.4516608715057373,2.220883369445801,-1000.9010009765625,-1.1985652446746826,0.8110504746437073,-0.20321811735630035
1905,1555,2.4516608715057373,2.220883369445801,-1000.9010009765625,-1.1985652446746826,0.8110504746437073,-0.20321811735630035
1885,1555,2.4516608715057373,2.220883369445801,-1000.9010009765625,-1.1985652446746826,0.8110504746437073,-0.20321811735630035
1943,1556,1.2326194047927856,3.582545518875122,-999.8088989257812,-0.03207782283425331,0.23582178354263306,0.12929333746433258
1989,1556,1.2326194047927856,3.582545518875122,-999.8088989257812,-0.03207782283425331,0.23582178354263306,0.12929333746433258
1958,1556,1.2326194047927856,3.582545518875122,-999.8088989257812,-0.03207782283425331,0.23582178354263306,0.12929333746433258
1953,1556,1.2326194047927856,3.582545518875122,-999.8088989257812,-0.03207782283425331,0.23582178354263306,0.12929333746433258
1874,1556,1.2326194047927856,3.582545518875122,-999.8088989257812,-0.03207782283425331,0.23582178354263306,0.12929333746433258
1920,1556,1.2326194047927856,3.582545518875122,-999.8088989257812,-0.03207782283425331,0.23582178354263306,0.12929333746433258
1889,1556,1.2326194047927856,3.582545518875122,-999.8088989257812,-0.03207782283425331,0.23582178354263306,0.12929333746433258
1884,1556,1.2326194047927856,3.582545518875122,-999.8088989257812,-0.03207782283425331,0.23582178354263306,0.12929333746433258
1959,1557,2.4488348960876465,2.21598482131958,-1000.2162475585938,1.016154170036316,-0.06335318833589554,-0.7245928645133972
1942,1557,2.4488348960876465,2.21598482131958,-1000.2162475585938,1.016154170036316,-0.06335318833589554,-0.7245928645133972
1952,1557,2.4488348960876465,2.21598482131958,-1000.2162475585938,1.016154170036316,-0.06335318833589554,-0.7245928645133972
1972,1557,2.4488348960876465,2.21598482131958,-1000.2162475585938,1.016154170036316,-0.06335318833589554,-0.7245928645133972
1890,1557,2.4488348960876465,2.21598482131958,-1000.2162475585938,1.016154170036316,-0.06335318833589554,-0.7245928645133972
1873,1557,2.4488348960876465,2.21598482131958,-1000.2162475585938,1.016154170036316,-0.06335318833589554,-0.7245928645133972
1883,1557,2.4488348960876465,2.21598482131958,-1000.2162475585938,1.016154170036316,-0.06335318833589554,-0.7245928645133972
1903,1557,2.4488348960876465,2.21598482131958,-1000.2162475585938,1.016154170036316,-0.06335318833589554,-0.7245928645133972
1960,1558,4.477234840393066,1.4071887731552124,-1000.9273681640625,-0.5182472467422485,0.6411756873130798,-0.21457453072071075
1948,1558,4.477234840393066,1.4071887731552124,-1000.9273681640625,-0.5182472467422485,0.6411756873130798,-0.21457453072071075
1947,1558,4.477234840393066,1.4071887731552124,-1000.9273681640625,-0.5182472467422485,0.6411756873130798,-0.21457453072071075
1957,1558,4.477234840393066,1.4071887731552124,-1000.9273681640625,-0.5182472467422485,0.6411756873130798,-0.21457453072071075
1891,1558,4.477234840393066,1.4071887731552124,-1000.9273681640625,-0.5182472467422485,0.6411756873130798,-0.21457453072071075
1879,1558,4.477234840393066,1.4071887731552124,-1000.9273681640625,-0.5182472467422485,0.6411756873130798,-0.21457453072071075
1878,1558,4.477234840393066,1.4071887731552124,-1000.9273681640625,-0.5182472467422485,0.6411756873130798,-0.21457453072071075
1888,1558,4.477234840393066,1.4071887731552124,-1000.9273681640625,-0.5182472467422485,0.6411756873130798,-0.21457453072071075
1972,1559,3.9058468341827393,1.595238208770752,-1000.3704223632812,0.7145702838897705,-0.613162636756897,-0.03397749364376068
1952,1559,3.9058468341827393,1.595238208770752,-1000.3704223632812,0.7145702838897705,-0.613162636756897,-0.03397749364376068
1941,1559,3.9058468341827393,1.595238208770752,-1000.3704223632812,0.7145702838897705,-0.613162636756897,-0.03397749364376068
1961,1559,3.9058468341827393,1.595238208770752,-1000.3704223632812,0.7145702838897705,-0.613162636756897,-0.03397749364376068
1903,1559,3.9058468341827393,1.595238208770752,-1000.3704223632812,0.7145702838897705,-0.613162636756897,-0.03397749364376068
1883,1559,3.9058468341827393,1.595238208770752,-1000.3704223632812,0.7145702838897705,-0.613162636756897,-0.03397749364376068
1872,1559,3.9058468341827393,1.595238208770752,-1000.3704223632812,0.7145702838897705,-0.613162636756897,-0.03397749364376068
1892,1559,3.9058468341827393,1.595238208770752,-1000.3704223632812,0.7145702838897705,-0.613162636756897,-0.03397749364376068
1996,1560,-0.70693039894104,-1.9969162940979004,-999.0606079101562,-2.132369041442871,1.4253594875335693,-0.7588385939598083
1989,1560,-0.70693039894104,-1.9969162940979004,-999.0606079101562,-2.132369041442871,1.4253594875335693,-0.7588385939598083
1959,1560,-0.70693039894104,-1.9969162940979004,-999.0606079101562,-2.132369041442871,1.4253594875335693,-0.7588385939598083
1984,1560,-0.70693039894104,-1.9969162940979004,-999.0606079101562,-2.132369041442871,1.4253594875335693,-0.7588385939598083
1927,1560,-0.70693039894104,-1.9969162940979004,-999.0606079101562,-2.132369041442871,1.4253594875335693,-0.7588385939598083
1920,1560,-0.70693039894104,-1.9969162940979004,-999.0606079101562,-2.132369041442871,1.4253594875335693,-0.7588385939598083
1890,1560,-0.70693039894104,-1.9969162940979004,-999.0606079101562,-2.132369041442871,1.4253594875335693,-0.7588385939598083
1915,1560,-0.70693039894104,-1.9969162940979004,-999.0606079101562,-2.132369041442871,1.4253594875335693,-0.7588385939598083
1961,1561,4.267520904541016,1.8815548419952393,-1000.080322265625,0.5281298160552979,-0.8783634305000305,-0.8439751863479614
1941,1561,4.267520904541016,1.8815548419952393,-1000.080322265625,0.5281298160552979,-0.8783634305000305,-0.8439751863479614
1940,1561,4.267520904541016,1.8815548419952393,-1000.080322265625,0.5281298160552979,-0.8783634305000305,-0.8439751863479614
1962,1561,4.267520904541016,1.8815548419952393,-1000.080322265625,0.5281298160552979,-0.8783634305000305,-0.8439751863479614
1892,1561,4.267520904541016,1.8815548419952393,-1000.080322265625,0.5281298160552979,-0.8783634305000305,-0.8439751863479614
1872,1561,4.267520904541016,1.8815548419952393,-1000.080322265625,0.5281298160552979,-0.8783634305000305,-0.8439751863479614
1871,1561,4.267520904541016,1.8815548419952393,-1000.080322265625,0.5281298160552979,-0.8783634305000305,-0.8439751863479614
1893,1561,4.267520904541016,1.8815548419952393,-1000.080322265625,0.5281298160552979,-0.8783634305000305,-0.8439751863479614
1962,1562,3.9525609016418457,1.3467292785644531,-1000.7869262695312,-0.29738929867744446,-0.8083927631378174,0.8377835750579834
1940,1562,3.9525609016418457,1.3467292785644531,-1000.7869262695312,-0.29738929867744446,-0.8083927631378174,0.8377835750579834
1939,1562,3.9525609016418457,1.3467292785644531,-1000.7869262695312,-0.29738929867744446,-0.8083927631378174,0.8377835750579834
1963,1562,3.9525609016418457,1.3467292785644531,-1000.7869262695312,-0.29738929867744446,-0.8083927631378174,0.8377835750579834
1893,1562,3.9525609016418457,1.3467292785644531,-1000.7869262695312,-0.29738929867744446,-0.8083927631378174,0.8377835750579834
1871,1562,3.9525609016418457,1.3467292785644531,-1000.7869262695312,-0.29738929867744446,-0.8083927631378174,0.8377835750579834
1870,1562,3.9525609016418457,1.3467292785644531,-1000.7869262695312,-0.29738929867744446,-0.8083927631378174,0.8377835750579834
1894,1562,3.9525609016418457,1.3467292785644531,-1000.7869262695312,-0.29738929867744446,-0.8083927631378174,0.8377835750579834
1993,1563,3.1018266677856445,3.743447780609131,-1002.9363403320312,1.6493721008300781,1.078749656677246,4.065852642059326
1981,1563,3.1018266677856445,3.743447780609131,-1002.9363403320312,1.6493721008300781,1.078749656677246,4.065852642059326
1992,1563,3.1018266677856445,3.743447780609131,-1002.9363403320312,1.6493721008300781,1.078749656677246,4.065852642059326
1986,1563,3.1018266677856445,3.743447780609131,-1002.9363403320312,1.6493721008300781,1.078749656677246,4.065852642059326
1924,1563,3.1018266677856445,3.743447780609131,-1002.9363403320312,1.6493721008300781,1.078749656677246,4.065852642059326
1912,1563,3.1018266677856445,3.743447780609131,-1002.9363403320312,1.6493721008300781,1.078749656677246,4.065852642059326
1923,1563,3.1018266677856445,3.743447780609131,-1002.9363403320312,1.6493721008300781,1.078749656677246,4.065852642059326
1917,1563,3.1018266677856445,3.743447780609131,-1002.9363403320312,1.6493721008300781,1.078749656677246,4.065852642059326
1948,1564,3.9150445461273193,1.9745358228683472,-999.6777954101562,0.5393568277359009,0.13534708321094513,0.04787415266036987
1960,1564,3.9150445461273193,1.9745358228683472,-999.6777954101562,0.5393568277359009,0.13534708321094513,0.04787415266036987
1968,1564,3.9150445461273193,1.9745358228683472,-999.6777954101562,0.5393568277359009,0.13534708321094513,0.04787415266036987
1933,1564,3.9150445461273193,1.9745358228683472,-999.6777954101562,0.5393568277359009,0.13534708321094513,0.04787415266036987
1879,1564,3.9150445461273193,1.9745358228683472,-999.6777954101562,0.5393568277359009,0.13534708321094513,0.04787415266036987
1891,1564,3.9150445461273193,1.9745358228683472,-999.6777954101562,0.5393568277359009,0.13534708321094513,0.04787415266036987
1899,1564,3.9150445461273193,1.9745358228683472,-999.6777954101562,0.5393568277359009,0.13534708321094513,0.04787415266036987
1864,1564,3.9150445461273193,1.9745358228683472,-999.6777954101562,0.5393568277359009,0.13534708321094513,0.04787415266036987
1963,1565,4.514647483825684,2.086869239807129,-999.4754028320312,-0.6791258454322815,-0.43060582876205444,0.06338096410036087
1939,1565,4.514647483825684,2.086869239807129,-999.4754028320312,-0.6791258454322815,-0.43060582876205444,0.06338096410036087
1951,1565,4.514647483825684,2.086869239807129,-999.4754028320312,-0.6791258454322815,-0.43060582876205444,0.06338096410036087
1971,1565,4.514647483825684,2.086869239807129,-999.4754028320312,-0.6791258454322815,-0.43060582876205444,0.06338096410036087
1894,1565,4.514647483825684,2.086869239807129,-999.4754028320312,-0.6791258454322815,-0.43060582876205444,0.06338096410036087
1870,1565,4.514647483825684,2.086869239807129,-999.4754028320312,-0.6791258454322815,-0.43060582876205444,0.06338096410036087
1882,1565,4.514647483825684,2.086869239807129,-999.4754028320312,-0.6791258454322815,-0.43060582876205444,0.06338096410036087
1902,1565,4.514647483825684,2.086869239807129,-999.4754028320312,-0.6791258454322815,-0.43060582876205444,0.06338096410036087
1971,1566,2.6956160068511963,2.0588536262512207,-1001.0552978515625,-1.3858022689819336,-0.45265108346939087,0.8699519038200378
1951,1566,2.6956160068511963,2.0588536262512207,-1001.0552978515625,-1.3858022689819336,-0.45265108346939087,0.8699519038200378
1938,1566,2.6956160068511963,2.0588536262512207,-1001.0552978515625,-1.3858022689819336,-0.45265108346939087,0.8699519038200378
1964,1566,2.6956160068511963,2.0588536262512207,-1001.0552978515625,-1.3858022689819336,-0.45265108346939087,0.8699519038200378
1902,1566,2.6956160068511963,2.0588536262512207,-1001.0552978515625,-1.3858022689819336,-0.45265108346939087,0.8699519038200378
1882,1566,2.6956160068511963,2.0588536262512207,-1001.0552978515625,-1.3858022689819336,-0.45265108346939087,0.8699519038200378
1869,1566,2.6956160068511963,2.0588536262512207,-1001.0552978515625,-1.3858022689819336,-0.45265108346939087,0.8699519038200378
1895,1566,2.6956160068511963,2.0588536262512207,-1001.0552978515625,-1.3858022689819336,-0.45265108346939087,0.8699519038200378
1964,1567,2.3802554607391357,3.0517802238464355,-999.5346069335938,-0.9384046196937561,6.389600457623601e-05,0.15106721222400665
1938,1567,2.3802554607391357,3.0517802238464355,-999.5346069335938,-0.9384046196937561,6.389600457623601e-05,0.15106721222400665
1937,1567,2.3802554607391357,3.0517802238464355,-999.5346069335938,-0.9384046196937561,6.389600457623601e-05,0.15106721222400665
1965,1567,2.3802554607391357,3.0517802238464355,-999.5346069335938,-0.9384046196937561,6.389600457623601e-05,0.15106721222400665
1895,1567,2.3802554607391357,3.0517802238464355,-999.5346069335938,-0.9384046196937561,6.389600457623601e-05,0.15106721222400665
1869,1567,2.3802554607391357,3.0517802238464355,-999.5346069335938,-0.9384046196937561,6.389600457623601e-05,0.15106721222400665
1868,1567,2.3802554607391357,3.0517802238464355,-999.5346069335938,-0.9384046196937561,6.389600457623601e-05,0.15106721222400665
1896,1567,2.3802554607391357,3.0517802238464355,-999.5346069335938,-0.9384046196937561,6.389600457623601e-05,0.15106721222400665
1965,1568,1.3330528736114502,3.2273690700531006,-1000.6867065429688,-0.5817797780036926,-0.25029999017715454,0.2315216064453125
1937,1568,1.3330528736114502,3.2273690700531006,-1000.6867065429688,-0.5817797780036926,-0.25029999017715454,0.2315216064453125
1950,1568,1.3330528736114502,3.2273690700531006,-1000.6867065429688,-0.5817797780036926,-0.25029999017715454,0.2315216064453125
1970,1568,1.3330528736114502,3.2273690700531006,-1000.6867065429688,-0.5817797780036926,-0.25029999017715454,0.2315216064453125
1896,1568,1.3330528736114502,3.2273690700531006,-1000.6867065429688,-0.5817797780036926,-0.25029999017715454,0.2315216064453125
1868,1568,1.3330528736114502,3.2273690700531006,-1000.6867065429688,-0.5817797780036926,-0.25029999017715454,0.2315216064453125
1881,1568,1.3330528736114502,3.2273690700531006,-1000.6867065429688,-0.5817797780036926,-0.25029999017715454,0.2315216064453125
1901,1568,1.3330528736114502,3.2273690700531006,-1000.6867065429688,-0.5817797780036926,-0.25029999017715454,0.2315216064453125
1970,1569,2.075505495071411,5.94236946105957,-999.811767578125,-0.30540141463279724,-0.2933582067489624,1.0157811641693115
1950,1569,2.075505495071411,5.94236946105957,-999.811767578125,-0.30540141463279724,-0.2933582067489624,1.0157811641693115
1936,1569,2.075505495071411,5.94236946105957,-999.811767578125,-0.30540141463279724,-0.2933582067489624,1.0157811641693115
1966,1569,2.075505495071411,5.94236946105957,-999.811767578125,-0.30540141463279724,-0.2933582067489624,1.0157811641693115
1901,1569,2.075505495071411,5.94236946105957,-999.811767578125,-0.30540141463279724,-0.2933582067489624,1.0157811641693115
1881,1569,2.075505495071411,5.94236946105957,-999.811767578125,-0.30540141463279724,-0.2933582067489624,1.0157811641693115
1867,1569,2.075505495071411,5.94236946105957,-999.811767578125,-0.30540141463279724,-0.2933582067489624,1.0157811641693115
1897,1569,2.075505495071411,5.94236946105957,-999.811767578125,-0.30540141463279724,-0.2933582067489624,1.0157811641693115
1990,1570,1.1908565759658813,1.924463152885437,-999.7986450195312,0.5008637309074402,-0.04323504865169525,-0.3632773458957672
1935,1570,1.1908565759658813,1.924463152885437,-999.7986450195312,0.5008637309074402,-0.04323504865169525,-0.3632773458957672
1934,1570,1.1908565759658813,1.924463152885437,-999.7986450195312,0.5008637309074402,-0.04323504865169525,-0.3632773458957672
1991,1570,1.1908565759658813,1.924463152885437,-999.7986450195312,0.5008637309074402,-0.04323504865169525,-0.3632773458957672
1921,1570,1.1908565759658813,1.924463152885437,-999.7986450195312,0.5008637309074402,-0.04323504865169525,-0.3632773458957672
1866,1570,1.1908565759658813,1.924463152885437,-999.7986450195312,0.5008637309074402,-0.04323504865169525,-0.3632773458957672
1865,1570,1.1908565759658813,1.924463152885437,-999.7986450195312,0.5008637309074402,-0.04323504865169525,-0.3632773458957672
1922,1570,1.1908565759658813,1.924463152885437,-999.7986450195312,0.5008637309074402,-0.04323504865169525,-0.3632773458957672
1969,1571,2.8686583042144775,1.4098584651947021,-1000.6189575195312,0.7649994492530823,0.7255422472953796,-0.03436094895005226
1949,1571,2.8686583042144775,1.4098584651947021,-1000.6189575195312,0.7649994492530823,0.7255422472953796,-0.03436094895005226
1933,1571,2.8686583042144775,1.4098584651947021,-1000.6189575195312,0.7649994492530823,0.7255422472953796,-0.03436094895005226
1968,1571,2.8686583042144775,1.4098584651947021,-1000.6189575195312,0.7649994492530823,0.7255422472953796,-0.03436094895005226
1900,1571,2.8686583042144775,1.4098584651947021,-1000.6189575195312,0.7649994492530823,0.7255422472953796,-0.03436094895005226
1880,1571,2.8686583042144775,1.4098584651947021,-1000.6189575195312,0.7649994492530823,0.7255422472953796,-0.03436094895005226
1864,1571,2.8686583042144775,1.4098584651947021,-1000.6189575195312,0.7649994492530823,0.7255422472953796,-0.03436094895005226
1899,1571,2.8686583042144775,1.4098584651947021,-1000.6189575195312,0.7649994492530823,0.7255422472953796,-0.03436094895005226
1992,1572,-7.327147960662842,-3.05461049079895,-1004.9771118164062,-1.5500186681747437,0.04177328944206238,-1.7824469804763794
1968,1572,-7.327147960662842,-3.05461049079895,-1004.9771118164062,-1.5500186681747437,0.04177328944206238,-1.7824469804763794
1960,1572,-7.327147960662842,-3.05461049079895,-1004.9771118164062,-1.5500186681747437,0.04177328944206238,-1.7824469804763794
1975,1572,-7.327147960662842,-3.05461049079895,-1004.9771118164062,-1.5500186681747437,0.04177328944206238,-1.7824469804763794
1923,1572,-7.327147960662842,-3.05461049079895,-1004.9771118164062,-1.5500186681747437,0.04177328944206238,-1.7824469804763794
1899,1572,-7.327147960662842,-3.05461049079895,-1004.9771118164062,-1.5500186681747437,0.04177328944206238,-1.7824469804763794
1891,1572,-7.327147960662842,-3.05461049079895,-1004.9771118164062,-1.5500186681747437,0.04177328944206238,-1.7824469804763794
1906,1572,-7.327147960662842,-3.05461049079895,-1004.9771118164062,-1.5500186681747437,0.04177328944206238,-1.7824469804763794
1991,1573,-3.5330235958099365,-4.050700664520264,-1002.6209106445312,-1.1880669593811035,0.8670740127563477,-1.3374121189117432
1969,1573,-3.5330235958099365,-4.050700664520264,-1002.6209106445312,-1.1880669593811035,0.8670740127563477,-1.3374121189117432
1981,1573,-3.5330235958099365,-4.050700664520264,-1002.6209106445312,-1.1880669593811035,0.8670740127563477,-1.3374121189117432
1967,1573,-3.5330235958099365,-4.050700664520264,-1002.6209106445312,-1.1880669593811035,0.8670740127563477,-1.3374121189117432
1922,1573,-3.5330235958099365,-4.050700664520264,-1002.6209106445312,-1.1880669593811035,0.8670740127563477,-1.3374121189117432
1900,1573,-3.5330235958099365,-4.050700664520264,-1002.6209106445312,-1.1880669593811035,0.8670740127563477,-1.3374121189117432
1912,1573,-3.5330235958099365,-4.050700664520264,-1002.6209106445312,-1.1880669593811035,0.8670740127563477,-1.3374121189117432
1898,1573,-3.5330235958099365,-4.050700664520264,-1002.6209106445312,-1.1880669593811035,0.8670740127563477,-1.3374121189117432
1966,1574,1.781226634979248,4.620457649230957,-1000.723388671875,0.9106398224830627,0.497233122587204,1.103111743927002
1936,1574,1.781226634979248,4.620457649230957,-1000.723388671875,0.9106398224830627,0.497233122587204,1.103111743927002
1935,1574,1.781226634979248,4.620457649230957,-1000.723388671875,0.9106398224830627,0.497233122587204,1.103111743927002
1990,1574,1.781226634979248,4.620457649230957,-1000.723388671875,0.9106398224830627,0.497233122587204,1.103111743927002
1897,1574,1.781226634979248,4.620457649230957,-1000.723388671875,0.9106398224830627,0.497233122587204,1.103111743927002
1867,1574,1.781226634979248,4.620457649230957,-1000.723388671875,0.9106398224830627,0.497233122587204,1.103111743927002
1866,1574,1.781226634979248,4.620457649230957,-1000.723388671875,0.9106398224830627,0.497233122587204,1.103111743927002
1921,1574,1.781226634979248,4.620457649230957,-1000.723388671875,0.9106398224830627,0.497233122587204,1.103111743927002
1975,1575,-4.690133094787598,-0.08013826608657837,-994.9580688476562,1.3489322662353516,-2.0100955963134766,2.4145803451538086
1960,1575,-4.690133094787598,-0.08013826608657837,-994.9580688476562,1.3489322662353516,-2.0100955963134766,2.4145803451538086
1957,1575,-4.690133094787598,-0.08013826608657837,-994.9580688476562,1.3489322662353516,-2.0100955963134766,2.4145803451538086
2001,1575,-4.690133094787598,-0.08013826608657837,-994.9580688476562,1.3489322662353516,-2.0100955963134766,2.4145803451538086
1906,1575,-4.690133094787598,-0.08013826608657837,-994.9580688476562,1.3489322662353516,-2.0100955963134766,2.4145803451538086
1891,1575,-4.690133094787598,-0.08013826608657837,-994.9580688476562,1.3489322662353516,-2.0100955963134766,2.4145803451538086
1888,1575,-4.690133094787598,-0.08013826608657837,-994.9580688476562,1.3489322662353516,-2.0100955963134766,2.4145803451538086
1932,1575,-4.690133094787598,-0.08013826608657837,-994.9580688476562,1.3489322662353516,-2.0100955963134766,2.4145803451538086
1986,1576,2.0407612323760986,0.8901835680007935,-1001.3621215820312,-1.8348119258880615,0.7586783170700073,0.3703669607639313
2001,1576,2.0407612323760986,0.8901835680007935,-1001.3621215820312,-1.8348119258880615,0.7586783170700073,0.3703669607639313
1977,1576,2.0407612323760986,0.8901835680007935,-1001.3621215820312,-1.8348119258880615,0.7586783170700073,0.3703669607639313
1985,1576,2.0407612323760986,0.8901835680007935,-1001.3621215820312,-1.8348119258880615,0.7586783170700073,0.3703669607639313
1917,1576,2.0407612323760986,0.8901835680007935,-1001.3621215820312,-1.8348119258880615,0.7586783170700073,0.3703669607639313
1932,1576,2.0407612323760986,0.8901835680007935,-1001.3621215820312,-1.8348119258880615,0.7586783170700073,0.3703669607639313
1908,1576,2.0407612323760986,0.8901835680007935,-1001.3621215820312,-1.8348119258880615,0.7586783170700073,0.3703669607639313
1916,1576,2.0407612323760986,0.8901835680007935,-1001.3621215820312,-1.8348119258880615,0.7586783170700073,0.3703669607639313
1956,1577,-1.3111927509307861,-5.4739155769348145,-998.4776611328125,0.9357830286026001,-3.1787681579589844,1.4620616436004639
1973,1577,-1.3111927509307861,-5.4739155769348145,-998.4776611328125,0.9357830286026001,-3.1787681579589844,1.4620616436004639
1995,1577,-1.3111927509307861,-5.4739155769348145,-998.4776611328125,0.9357830286026001,-3.1787681579589844,1.4620616436004639
1980,1577,-1.3111927509307861,-5.4739155769348145,-998.4776611328125,0.9357830286026001,-3.1787681579589844,1.4620616436004639
1887,1577,-1.3111927509307861,-5.4739155769348145,-998.4776611328125,0.9357830286026001,-3.1787681579589844,1.4620616436004639
1904,1577,-1.3111927509307861,-5.4739155769348145,-998.4776611328125,0.9357830286026001,-3.1787681579589844,1.4620616436004639
1926,1577,-1.3111927509307861,-5.4739155769348145,-998.4776611328125,0.9357830286026001,-3.1787681579589844,1.4620616436004639
1911,1577,-1.3111927509307861,-5.4739155769348145,-998.4776611328125,0.9357830286026001,-3.1787681579589844,1.4620616436004639
1980,1578,1.2575925588607788,7.573657512664795,-999.5914306640625,-0.1934105008840561,0.9173214435577393,-4.392657279968262
1995,1578,1.2575925588607788,7.573657512664795,-999.5914306640625,-0.1934105008840561,0.9173214435577393,-4.392657279968262
1979,1578,1.2575925588607788,7.573657512664795,-999.5914306640625,-0.1934105008840561,0.9173214435577393,-4.392657279968262
1985,1578,1.2575925588607788,7.573657512664795,-999.5914306640625,-0.1934105008840561,0.9173214435577393,-4.392657279968262
1911,1578,1.2575925588607788,7.573657512664795,-999.5914306640625,-0.1934105008840561,0.9173214435577393,-4.392657279968262
1926,1578,1.2575925588607788,7.573657512664795,-999.5914306640625,-0.1934105008840561,0.9173214435577393,-4.392657279968262
1910,1578,1.2575925588607788,7.573657512664795,-999.5914306640625,-0.1934105008840561,0.9173214435577393,-4.392657279968262
1916,1578,1.2575925588607788,7.573657512664795,-999.5914306640625,-0.1934105008840561,0.9173214435577393,-4.392657279968262
1982,1579,-2.2763609886169434,-7.989084243774414,-1001.1425170898438,-0.6898680925369263,-0.607396125793457,-4.760012149810791
1970,1579,-2.2763609886169434,-7.989084243774414,-1001.1425170898438,-0.6898680925369263,-0.607396125793457,-4.760012149810791
1966,1579,-2.2763609886169434,-7.989084243774414,-1001.1425170898438,-0.6898680925369263,-0.607396125793457,-4.760012149810791
1990,1579,-2.2763609886169434,-7.989084243774414,-1001.1425170898438,-0.6898680925369263,-0.607396125793457,-4.760012149810791
1913,1579,-2.2763609886169434,-7.989084243774414,-1001.1425170898438,-0.6898680925369263,-0.607396125793457,-4.760012149810791
1901,1579,-2.2763609886169434,-7.989084243774414,-1001.1425170898438,-0.6898680925369263,-0.607396125793457,-4.760012149810791
1897,1579,-2.2763609886169434,-7.989084243774414,-1001.1425170898438,-0.6898680925369263,-0.607396125793457,-4.760012149810791
1921,1579,-2.2763609886169434,-7.989084243774414,-1001.1425170898438,-0.6898680925369263,-0.607396125793457,-4.760012149810791
1980,1580,5.3961381912231445,5.896139621734619,-996.5989379882812,-1.8565458059310913,4.573904514312744,-0.9769302010536194
1985,1580,5.3961381912231445,5.896139621734619,-996.5989379882812,-1.8565458059310913,4.573904514312744,-0.9769302010536194
1977,1580,5.3961381912231445,5.896139621734619,-996.5989379882812,-1.8565458059310913,4.573904514312744,-0.9769302010536194
1994,1580,5.3961381912231445,5.896139621734619,-996.5989379882812,-1.8565458059310913,4.573904514312744,-0.9769302010536194
1911,1580,5.3961381912231445,5.896139621734619,-996.5989379882812,-1.8565458059310913,4.573904514312744,-0.9769302010536194
1916,1580,5.3961381912231445,5.896139621734619,-996.5989379882812,-1.8565458059310913,4.573904514312744,-0.9769302010536194
1908,1580,5.3961381912231445,5.896139621734619,-996.5989379882812,-1.8565458059310913,4.573904514312744,-0.9769302010536194
1925,1580,5.3961381912231445,5.896139621734619,-996.5989379882812,-1.8565458059310913,4.573904514312744,-0.9769302010536194
1958,1581,-1.518123984336853,-5.752815246582031,-1001.3015747070312,-0.5896108150482178,-0.2819632589817047,-0.771538496017456
1989,1581,-1.518123984336853,-5.752815246582031,-1001.3015747070312,-0.5896108150482178,-0.2819632589817047,-0.771538496017456
1996,1581,-1.518123984336853,-5.752815246582031,-1001.3015747070312,-0.5896108150482178,-0.2819632589817047,-0.771538496017456
1979,1581,-1.518123984336853,-5.752815246582031,-1001.3015747070312,-0.5896108150482178,-0.2819632589817047,-0.771538496017456
1889,1581,-1.518123984336853,-5.752815246582031,-1001.3015747070312,-0.5896108150482178,-0.2819632589817047,-0.771538496017456
1920,1581,-1.518123984336853,-5.752815246582031,-1001.3015747070312,-0.5896108150482178,-0.2819632589817047,-0.771538496017456
1927,1581,-1.518123984336853,-5.752815246582031,-1001.3015747070312,-0.5896108150482178,-0.2819632589817047,-0.771538496017456
1910,1581,-1.518123984336853,-5.752815246582031,-1001.3015747070312,-0.5896108150482178,-0.2819632589817047,-0.771538496017456
2000,1582,4.540338039398193,6.470935344696045,-1000.0681762695312,0.18815356492996216,-1.7378548383712769,2.1700971126556396
1982,1582,4.540338039398193,6.470935344696045,-1000.0681762695312,0.18815356492996216,-1.7378548383712769,2.1700971126556396
1967,1582,4.540338039398193,6.470935344696045,-1000.0681762695312,0.18815356492996216,-1.7378548383712769,2.1700971126556396
1988,1582,4.540338039398193,6.470935344696045,-1000.0681762695312,0.18815356492996216,-1.7378548383712769,2.1700971126556396
1931,1582,4.540338039398193,6.470935344696045,-1000.0681762695312,0.18815356492996216,-1.7378548383712769,2.1700971126556396
1913,1582,4.540338039398193,6.470935344696045,-1000.0681762695312,0.18815356492996216,-1.7378548383712769,2.1700971126556396
1898,1582,4.540338039398193,6.470935344696045,-1000.0681762695312,0.18815356492996216,-1.7378548383712769,2.1700971126556396
1919,1582,4.540338039398193,6.470935344696045,-1000.0681762695312,0.18815356492996216,-1.7378548383712769,2.1700971126556396
1976,1583,7.397304058074951,1.452691674232483,-998.5311279296875,0.4232667088508606,-5.85817813873291,-0.789197564125061
1998,1583,7.397304058074951,1.452691674232483,-998.5311279296875,0.4232667088508606,-5.85817813873291,-0.789197564125061
1983,1583,7.397304058074951,1.452691674232483,-998.5311279296875,0.4232667088508606,-5.85817813873291,-0.789197564125061
1987,1583,7.397304058074951,1.452691674232483,-998.5311279296875,0.4232667088508606,-5.85817813873291,-0.789197564125061
1907,1583,7.397304058074951,1.452691674232483,-998.5311279296875,0.4232667088508606,-5.85817813873291,-0.789197564125061
1929,1583,7.397304058074951,1.452691674232483,-998.5311279296875,0.4232667088508606,-5.85817813873291,-0.789197564125061
1914,1583,7.397304058074951,1.452691674232483,-998.5311279296875,0.4232667088508606,-5.85817813873291,-0.789197564125061
1918,1583,7.397304058074951,1.452691674232483,-998.5311279296875,0.4232667088508606,-5.85817813873291,-0.789197564125061
1999,1584,-1.1136237382888794,-0.9444770812988281,-995.6189575195312,2.890994071960449,1.9991804361343384,-0.48912313580513
1971,1584,-1.1136237382888794,-0.9444770812988281,-995.6189575195312,2.890994071960449,1.9991804361343384,-0.48912313580513
1964,1584,-1.1136237382888794,-0.9444770812988281,-995.6189575195312,2.890994071960449,1.9991804361343384,-0.48912313580513
1978,1584,-1.1136237382888794,-0.9444770812988281,-995.6189575195312,2.890994071960449,1.9991804361343384,-0.48912313580513
1930,1584,-1.1136237382888794,-0.9444770812988281,-995.6189575195312,2.890994071960449,1.9991804361343384,-0.48912313580513
1902,1584,-1.1136237382888794,-0.9444770812988281,-995.6189575195312,2.890994071960449,1.9991804361343384,-0.48912313580513
1895,1584,-1.1136237382888794,-0.9444770812988281,-995.6189575195312,2.890994071960449,1.9991804361343384,-0.48912313580513
1909,1584,-1.1136237382888794,-0.9444770812988281,-995.6189575195312,2.890994071960449,1.9991804361343384,-0.48912313580513
1988,1585,0.39900773763656616,2.4458799362182617,-999.773193359375,-1.9819446802139282,0.4048573076725006,-0.7324752807617188
1987,1585,0.39900773763656616,2.4458799362182617,-999.773193359375,-1.9819446802139282,0.4048573076725006,-0.7324752807617188
1978,1585,0.39900773763656616,2.4458799362182617,-999.773193359375,-1.9819446802139282,0.4048573076725006,-0.7324752807617188
2000,1585,0.39900773763656616,2.4458799362182617,-999.773193359375,-1.9819446802139282,0.4048573076725006,-0.7324752807617188
1919,1585,0.39900773763656616,2.4458799362182617,-999.773193359375,-1.9819446802139282,0.4048573076725006,-0.7324752807617188
1918,1585,0.39900773763656616,2.4458799362182617,-999.773193359375,-1.9819446802139282,0.4048573076725006,-0.7324752807617188
1909,1585,0.39900773763656616,2.4458799362182617,-999.773193359375,-1.9819446802139282,0.4048573076725006,-0.7324752807617188
1931,1585,0.39900773763656616,2.4458799362182617,-999.773193359375,-1.9819446802139282,0.4048573076725006,-0.7324752807617188
1988,1586,-1.7766773700714111,-3.0661134719848633,-1000.4771728515625,-0.16048426926136017,-5.4577107429504395,-0.29480424523353577
1993,1586,-1.7766773700714111,-3.0661134719848633,-1000.4771728515625,-0.16048426926136017,-5.4577107429504395,-0.29480424523353577
1986,1586,-1.7766773700714111,-3.0661134719848633,-1000.4771728515625,-0.16048426926136017,-5.4577107429504395,-0.29480424523353577
1985,1586,-1.7766773700714111,-3.0661134719848633,-1000.4771728515625,-0.16048426926136017,-5.4577107429504395,-0.29480424523353577
1919,1586,-1.7766773700714111,-3.0661134719848633,-1000.4771728515625,-0.16048426926136017,-5.4577107429504395,-0.29480424523353577
1924,1586,-1.7766773700714111,-3.0661134719848633,-1000.4771728515625,-0.16048426926136017,-5.4577107429504395,-0.29480424523353577
1917,1586,-1.7766773700714111,-3.0661134719848633,-1000.4771728515625,-0.16048426926136017,-5.4577107429504395,-0.29480424523353577
1916,1586,-1.7766773700714111,-3.0661134719848633,-1000.4771728515625,-0.16048426926136017,-5.4577107429504395,-0.29480424523353577
1978,1587,6.029324054718018,5.077358245849609,-998.9854736328125,-0.9247512817382812,-1.892226219177246,5.615437030792236
1987,1587,6.029324054718018,5.077358245849609,-998.9854736328125,-0.9247512817382812,-1.892226219177246,5.615437030792236
1983,1587,6.029324054718018,5.077358245849609,-998.9854736328125,-0.9247512817382812,-1.892226219177246,5.615437030792236
1999,1587,6.029324054718018,5.077358245849609,-998.9854736328125,-0.9247512817382812,-1.892226219177246,5.615437030792236
1909,1587,6.029324054718018,5.077358245849609,-998.9854736328125,-0.9247512817382812,-1.892226219177246,5.615437030792236
1918,1587,6.029324054718018,5.077358245849609,-998.9854736328125,-0.9247512817382812,-1.892226219177246,5.615437030792236
1914,1587,6.029324054718018,5.077358245849609,-998.9854736328125,-0.9247512817382812,-1.892226219177246,5.615437030792236
1930,1587,6.029324054718018,5.077358245849609,-998.9854736328125,-0.9247512817382812,-1.892226219177246,5.615437030792236
1989,1588,1.520173192024231,2.2443361282348633,-1000.4492797851562,0.8941521644592285,-0.5182963013648987,-0.14321495592594147
1943,1588,1.520173192024231,2.2443361282348633,-1000.4492797851562,0.8941521644592285,-0.5182963013648987,-0.14321495592594147
1942,1588,1.520173192024231,2.2443361282348633,-1000.4492797851562,0.8941521644592285,-0.5182963013648987,-0.14321495592594147
1959,1588,1.520173192024231,2.2443361282348633,-1000.4492797851562,0.8941521644592285,-0.5182963013648987,-0.14321495592594147
1920,1588,1.520173192024231,2.2443361282348633,-1000.4492797851562,0.8941521644592285,-0.5182963013648987,-0.14321495592594147
1874,1588,1.520173192024231,2.2443361282348633,-1000.4492797851562,0.8941521644592285,-0.5182963013648987,-0.14321495592594147
1873,1588,1.520173192024231,2.2443361282348633,-1000.4492797851562,0.8941521644592285,-0.5182963013648987,-0.14321495592594147
1890,1588,1.520173192024231,2.2443361282348633,-1000.4492797851562,0.8941521644592285,-0.5182963013648987,-0.14321495592594147
1991,1589,2.304220676422119,2.0387485027313232,-999.9967651367188,0.7276808023452759,-0.10285349935293198,0.11629634350538254
1934,1589,2.304220676422119,2.0387485027313232,-999.9967651367188,0.7276808023452759,-0.10285349935293198,0.11629634350538254
1949,1589,2.304220676422119,2.0387485027313232,-999.9967651367188,0.7276808023452759,-0.10285349935293198,0.11629634350538254
1969,1589,2.304220676422119,2.0387485027313232,-999.9967651367188,0.7276808023452759,-0.10285349935293198,0.11629634350538254
1922,1589,2.304220676422119,2.0387485027313232,-999.9967651367188,0.7276808023452759,-0.10285349935293198,0.11629634350538254
1865,1589,2.304220676422119,2.0387485027313232,-999.9967651367188,0.7276808023452759,-0.10285349935293198,0.11629634350538254
1880,1589,2.304220676422119,2.0387485027313232,-999.9967651367188,0.7276808023452759,-0.10285349935293198,0.11629634350538254
1900,1589,2.304220676422119,2.0387485027313232,-999.9967651367188,0.7276808023452759,-0.10285349935293198,0.11629634350538254
1968,1590,-1.4794856309890747,0.6748432517051697,-995.8053588867188,-1.7195309400558472,-2.1790761947631836,2.301791191101074
1992,1590,-1.4794856309890747,0.6748432517051697,-995.8053588867188,-1.7195309400558472,-2.1790761947631836,2.301791191101074
1981,1590,-1.4794856309890747,0.6748432517051697,-995.8053588867188,-1.7195309400558472,-2.1790761947631836,2.301791191101074
1969,1590,-1.4794856309890747,0.6748432517051697,-995.8053588867188,-1.7195309400558472,-2.1790761947631836,2.301791191101074
1899,1590,-1.4794856309890747,0.6748432517051697,-995.8053588867188,-1.7195309400558472,-2.1790761947631836,2.301791191101074
1923,1590,-1.4794856309890747,0.6748432517051697,-995.8053588867188,-1.7195309400558472,-2.1790761947631836,2.301791191101074
1912,1590,-1.4794856309890747,0.6748432517051697,-995.8053588867188,-1.7195309400558472,-2.1790761947631836,2.301791191101074
1900,1590,-1.4794856309890747,0.6748432517051697,-995.8053588867188,-1.7195309400558472,-2.1790761947631836,2.301791191101074
1992,1591,8.789114952087402,5.875855922698975,-996.67529296875,0.34593915939331055,6.706753730773926,-3.5322189331054688
1975,1591,8.789114952087402,5.875855922698975,-996.67529296875,0.34593915939331055,6.706753730773926,-3.5322189331054688
2001,1591,8.789114952087402,5.875855922698975,-996.67529296875,0.34593915939331055,6.706753730773926,-3.5322189331054688
1986,1591,8.789114952087402,5.875855922698975,-996.67529296875,0.34593915939331055,6.706753730773926,-3.5322189331054688
1923,1591,8.789114952087402,5.875855922698975,-996.67529296875,0.34593915939331055,6.706753730773926,-3.5322189331054688
1906,1591,8.789114952087402,5.875855922698975,-996.67529296875,0.34593915939331055,6.706753730773926,-3.5322189331054688
1932,1591,8.789114952087402,5.875855922698975,-996.67529296875,0.34593915939331055,6.706753730773926,-3.5322189331054688
1917,1591,8.789114952087402,5.875855922698975,-996.67529296875,0.34593915939331055,6.706753730773926,-3.5322189331054688
1994,1592,-2.247753143310547,-5.645898342132568,-1004.0531005859375,2.0409111976623535,-0.16718654334545135,0.7296741008758545
1955,1592,-2.247753143310547,-5.645898342132568,-1004.0531005859375,2.0409111976623535,-0.16718654334545135,0.7296741008758545
1956,1592,-2.247753143310547,-5.645898342132568,-1004.0531005859375,2.0409111976623535,-0.16718654334545135,0.7296741008758545
1980,1592,-2.247753143310547,-5.645898342132568,-1004.0531005859375,2.0409111976623535,-0.16718654334545135,0.7296741008758545
1925,1592,-2.247753143310547,-5.645898342132568,-1004.0531005859375,2.0409111976623535,-0.16718654334545135,0.7296741008758545
1886,1592,-2.247753143310547,-5.645898342132568,-1004.0531005859375,2.0409111976623535,-0.16718654334545135,0.7296741008758545
1887,1592,-2.247753143310547,-5.645898342132568,-1004.0531005859375,2.0409111976623535,-0.16718654334545135,0.7296741008758545
1911,1592,-2.247753143310547,-5.645898342132568,-1004.0531005859375,2.0409111976623535,-0.16718654334545135,0.7296741008758545
1995,1593,-0.38849765062332153,-5.460451602935791,-999.6428833007812,-0.16112321615219116,2.382873296737671,1.4900919198989868
1973,1593,-0.38849765062332153,-5.460451602935791,-999.6428833007812,-0.16112321615219116,2.382873296737671,1.4900919198989868
1958,1593,-0.38849765062332153,-5.460451602935791,-999.6428833007812,-0.16112321615219116,2.382873296737671,1.4900919198989868
1979,1593,-0.38849765062332153,-5.460451602935791,-999.6428833007812,-0.16112321615219116,2.382873296737671,1.4900919198989868
1926,1593,-0.38849765062332153,-5.460451602935791,-999.6428833007812,-0.16112321615219116,2.382873296737671,1.4900919198989868
1904,1593,-0.38849765062332153,-5.460451602935791,-999.6428833007812,-0.16112321615219116,2.382873296737671,1.4900919198989868
1889,1593,-0.38849765062332153,-5.460451602935791,-999.6428833007812,-0.16112321615219116,2.382873296737671,1.4900919198989868
1910,1593,-0.38849765062332153,-5.460451602935791,-999.6428833007812,-0.16112321615219116,2.382873296737671,1.4900919198989868
1997,1594,-4.498357772827148,-1.2117024660110474,-998.794677734375,-1.325114369392395,2.2162423133850098,0.8552320003509521
1972,1594,-4.498357772827148,-1.2117024660110474,-998.794677734375,-1.325114369392395,2.2162423133850098,0.8552320003509521
1961,1594,-4.498357772827148,-1.2117024660110474,-998.794677734375,-1.325114369392395,2.2162423133850098,0.8552320003509521
1976,1594,-4.498357772827148,-1.2117024660110474,-998.794677734375,-1.325114369392395,2.2162423133850098,0.8552320003509521
1928,1594,-4.498357772827148,-1.2117024660110474,-998.794677734375,-1.325114369392395,2.2162423133850098,0.8552320003509521
1903,1594,-4.498357772827148,-1.2117024660110474,-998.794677734375,-1.325114369392395,2.2162423133850098,0.8552320003509521
1892,1594,-4.498357772827148,-1.2117024660110474,-998.794677734375,-1.325114369392395,2.2162423133850098,0.8552320003509521
1907,1594,-4.498357772827148,-1.2117024660110474,-998.794677734375,-1.325114369392395,2.2162423133850098,0.8552320003509521
1998,1595,-5.135132312774658,-0.760002613067627,-996.80908203125,0.35816076397895813,3.2964587211608887,-1.4178801774978638
1962,1595,-5.135132312774658,-0.760002613067627,-996.80908203125,0.35816076397895813,3.2964587211608887,-1.4178801774978638
1963,1595,-5.135132312774658,-0.760002613067627,-996.80908203125,0.35816076397895813,3.2964587211608887,-1.4178801774978638
1983,1595,-5.135132312774658,-0.760002613067627,-996.80908203125,0.35816076397895813,3.2964587211608887,-1.4178801774978638
1929,1595,-5.135132312774658,-0.760002613067627,-996.80908203125,0.35816076397895813,3.2964587211608887,-1.4178801774978638
1893,1595,-5.135132312774658,-0.760002613067627,-996.80908203125,0.35816076397895813,3.2964587211608887,-1.4178801774978638
1894,1595,-5.135132312774658,-0.760002613067627,-996.80908203125,0.35816076397895813,3.2964587211608887,-1.4178801774978638
1914,1595,-5.135132312774658,-0.760002613067627,-996.80908203125,0.35816076397895813,3.2964587211608887,-1.4178801774978638
2000,1596,0.7355653643608093,-1.606647253036499,-997.9210205078125,1.7905478477478027,1.8142509460449219,1.9522976875305176
1965,1596,0.7355653643608093,-1.606647253036499,-997.9210205078125,1.7905478477478027,1.8142509460449219,1.9522976875305176
1970,1596,0.7355653643608093,-1.606647253036499,-997.9210205078125,1.7905478477478027,1.8142509460449219,1.9522976875305176
1982,1596,0.7355653643608093,-1.606647253036499,-997.9210205078125,1.7905478477478027,1.8142509460449219,1.9522976875305176
1931,1596,0.7355653643608093,-1.606647253036499,-997.9210205078125,1.7905478477478027,1.8142509460449219,1.9522976875305176
1896,1596,0.7355653643608093,-1.606647253036499,-997.9210205078125,1.7905478477478027,1.8142509460449219,1.9522976875305176
1901,1596,0.7355653643608093,-1.606647253036499,-997.9210205078125,1.7905478477478027,1.8142509460449219,1.9522976875305176
1913,1596,0.7355653643608093,-1.606647253036499,-997.9210205078125,1.7905478477478027,1.8142509460449219,1.9522976875305176
2025,1597,-0.17718733847141266,-4.372369289398193,-998.837646484375,1.4774523973464966,-1.03983473777771,0.09805292636156082
2014,1597,-0.17718733847141266,-4.372369289398193,-998.837646484375,1.4774523973464966,-1.03983473777771,0.09805292636156082
2013,1597,-0.17718733847141266,-4.372369289398193,-998.837646484375,1.4774523973464966,-1.03983473777771,0.09805292636156082
2042,1597,-0.17718733847141266,-4.372369289398193,-998.837646484375,1.4774523973464966,-1.03983473777771,0.09805292636156082
1956,1597,-0.17718733847141266,-4.372369289398193,-998.837646484375,1.4774523973464966,-1.03983473777771,0.09805292636156082
1945,1597,-0.17718733847141266,-4.372369289398193,-998.837646484375,1.4774523973464966,-1.03983473777771,0.09805292636156082
1944,1597,-0.17718733847141266,-4.372369289398193,-998.837646484375,1.4774523973464966,-1.03983473777771,0.09805292636156082
1973,1597,-0.17718733847141266,-4.372369289398193,-998.837646484375,1.4774523973464966,-1.03983473777771,0.09805292636156082
2042,1598,0.5363905429840088,-4.353508949279785,-999.1463623046875,-0.14071345329284668,1.02243173122406,0.05474718287587166
2013,1598,0.5363905429840088,-4.353508949279785,-999.1463623046875,-0.14071345329284668,1.02243173122406,0.05474718287587166
2022,1598,0.5363905429840088,-4.353508949279785,-999.1463623046875,-0.14071345329284668,1.02243173122406,0.05474718287587166
2027,1598,0.5363905429840088,-4.353508949279785,-999.1463623046875,-0.14071345329284668,1.02243173122406,0.05474718287587166
1973,1598,0.5363905429840088,-4.353508949279785,-999.1463623046875,-0.14071345329284668,1.02243173122406,0.05474718287587166
1944,1598,0.5363905429840088,-4.353508949279785,-999.1463623046875,-0.14071345329284668,1.02243173122406,0.05474718287587166
1953,1598,0.5363905429840088,-4.353508949279785,-999.1463623046875,-0.14071345329284668,1.02243173122406,0.05474718287587166
1958,1598,0.5363905429840088,-4.353508949279785,-999.1463623046875,-0.14071345329284668,1.02243173122406,0.05474718287587166
2023,1599,-4.041867733001709,-1.4029227495193481,-1000.1239624023438,2.3233795166015625,0.23104503750801086,-0.400514155626297
2043,1599,-4.041867733001709,-1.4029227495193481,-1000.1239624023438,2.3233795166015625,0.23104503750801086,-0.400514155626297
2026,1599,-4.041867733001709,-1.4029227495193481,-1000.1239624023438,2.3233795166015625,0.23104503750801086,-0.400514155626297
2016,1599,-4.041867733001709,-1.4029227495193481,-1000.1239624023438,2.3233795166015625,0.23104503750801086,-0.400514155626297
1954,1599,-4.041867733001709,-1.4029227495193481,-1000.1239624023438,2.3233795166015625,0.23104503750801086,-0.400514155626297
1974,1599,-4.041867733001709,-1.4029227495193481,-1000.1239624023438,2.3233795166015625,0.23104503750801086,-0.400514155626297
1957,1599,-4.041867733001709,-1.4029227495193481,-1000.1239624023438,2.3233795166015625,0.23104503750801086,-0.400514155626297
1947,1599,-4.041867733001709,-1.4029227495193481,-1000.1239624023438,2.3233795166015625,0.23104503750801086,-0.400514155626297
2014,1600,-0.6929107904434204,-3.1601181030273438,-1000.2617797851562,2.0497307777404785,0.4514043629169464,-0.21042010188102722
2025,1600,-0.6929107904434204,-3.1601181030273438,-1000.2617797851562,2.0497307777404785,0.4514043629169464,-0.21042010188102722
2024,1600,-0.6929107904434204,-3.1601181030273438,-1000.2617797851562,2.0497307777404785,0.4514043629169464,-0.21042010188102722
2015,1600,-0.6929107904434204,-3.1601181030273438,-1000.2617797851562,2.0497307777404785,0.4514043629169464,-0.21042010188102722
1945,1600,-0.6929107904434204,-3.1601181030273438,-1000.2617797851562,2.0497307777404785,0.4514043629169464,-0.21042010188102722
1956,1600,-0.6929107904434204,-3.1601181030273438,-1000.2617797851562,2.0497307777404785,0.4514043629169464,-0.21042010188102722
1955,1600,-0.6929107904434204,-3.1601181030273438,-1000.2617797851562,2.0497307777404785,0.4514043629169464,-0.21042010188102722
1946,1600,-0.6929107904434204,-3.1601181030273438,-1000.2617797851562,2.0497307777404785,0.4514043629169464,-0.21042010188102722
2053,1601,-2.57993745803833,-1.3226453065872192,-1002.3932495117188,-2.3056163787841797,0.798840343952179,4.58370304107666
2066,1601,-2.57993745803833,-1.3226453065872192,-1002.3932495117188,-2.3056163787841797,0.798840343952179,4.58370304107666
2045,1601,-2.57993745803833,-1.3226453065872192,-1002.3932495117188,-2.3056163787841797,0.798840343952179,4.58370304107666
2056,1601,-2.57993745803833,-1.3226453065872192,-1002.3932495117188,-2.3056163787841797,0.798840343952179,4.58370304107666
1984,1601,-2.57993745803833,-1.3226453065872192,-1002.3932495117188,-2.3056163787841797,0.798840343952179,4.58370304107666
1997,1601,-2.57993745803833,-1.3226453065872192,-1002.3932495117188,-2.3056163787841797,0.798840343952179,4.58370304107666
1976,1601,-2.57993745803833,-1.3226453065872192,-1002.3932495117188,-2.3056163787841797,0.798840343952179,4.58370304107666
1987,1601,-2.57993745803833,-1.3226453065872192,-1002.3932495117188,-2.3056163787841797,0.798840343952179,4.58370304107666
2069,1602,5.907800674438477,6.846103668212891,-996.135986328125,-0.3550574779510498,0.8704541921615601,4.415740966796875
2047,1602,5.907800674438477,6.846103668212891,-996.135986328125,-0.3550574779510498,0.8704541921615601,4.415740966796875
2033,1602,5.907800674438477,6.846103668212891,-996.135986328125,-0.3550574779510498,0.8704541921615601,4.415740966796875
2034,1602,5.907800674438477,6.846103668212891,-996.135986328125,-0.3550574779510498,0.8704541921615601,4.415740966796875
2000,1602,5.907800674438477,6.846103668212891,-996.135986328125,-0.3550574779510498,0.8704541921615601,4.415740966796875
1978,1602,5.907800674438477,6.846103668212891,-996.135986328125,-0.3550574779510498,0.8704541921615601,4.415740966796875
1964,1602,5.907800674438477,6.846103668212891,-996.135986328125,-0.3550574779510498,0.8704541921615601,4.415740966796875
1965,1602,5.907800674438477,6.846103668212891,-996.135986328125,-0.3550574779510498,0.8704541921615601,4.415740966796875
2057,1603,6.4020466804504395,7.430758476257324,-1000.4929809570312,-0.7023088932037354,-4.553291320800781,-1.8716731071472168
2054,1603,6.4020466804504395,7.430758476257324,-1000.4929809570312,-0.7023088932037354,-4.553291320800781,-1.8716731071472168
2053,1603,6.4020466804504395,7.430758476257324,-1000.4929809570312,-0.7023088932037354,-4.553291320800781,-1.8716731071472168
2056,1603,6.4020466804504395,7.430758476257324,-1000.4929809570312,-0.7023088932037354,-4.553291320800781,-1.8716731071472168
1988,1603,6.4020466804504395,7.430758476257324,-1000.4929809570312,-0.7023088932037354,-4.553291320800781,-1.8716731071472168
1985,1603,6.4020466804504395,7.430758476257324,-1000.4929809570312,-0.7023088932037354,-4.553291320800781,-1.8716731071472168
1984,1603,6.4020466804504395,7.430758476257324,-1000.4929809570312,-0.7023088932037354,-4.553291320800781,-1.8716731071472168
1987,1603,6.4020466804504395,7.430758476257324,-1000.4929809570312,-0.7023088932037354,-4.553291320800781,-1.8716731071472168
2048,1604,-1.4854100942611694,-4.156088829040527,-1004.0901489257812,-2.022411346435547,3.811666250228882,-2.6239914894104004
2065,1604,-1.4854100942611694,-4.156088829040527,-1004.0901489257812,-2.022411346435547,3.811666250228882,-2.6239914894104004
2053,1604,-1.4854100942611694,-4.156088829040527,-1004.0901489257812,-2.022411346435547,3.811666250228882,-2.6239914894104004
2054,1604,-1.4854100942611694,-4.156088829040527,-1004.0901489257812,-2.022411346435547,3.811666250228882,-2.6239914894104004
1979,1604,-1.4854100942611694,-4.156088829040527,-1004.0901489257812,-2.022411346435547,3.811666250228882,-2.6239914894104004
1996,1604,-1.4854100942611694,-4.156088829040527,-1004.0901489257812,-2.022411346435547,3.811666250228882,-2.6239914894104004
1984,1604,-1.4854100942611694,-4.156088829040527,-1004.0901489257812,-2.022411346435547,3.811666250228882,-2.6239914894104004
1985,1604,-1.4854100942611694,-4.156088829040527,-1004.0901489257812,-2.022411346435547,3.811666250228882,-2.6239914894104004
2028,1605,5.205709934234619,5.682063579559326,-999.2250366210938,1.4626598358154297,-1.2731496095657349,-3.6532142162323
2041,1605,5.205709934234619,5.682063579559326,-999.2250366210938,1.4626598358154297,-1.2731496095657349,-3.6532142162323
2066,1605,5.205709934234619,5.682063579559326,-999.2250366210938,1.4626598358154297,-1.2731496095657349,-3.6532142162323
2053,1605,5.205709934234619,5.682063579559326,-999.2250366210938,1.4626598358154297,-1.2731496095657349,-3.6532142162323
1959,1605,5.205709934234619,5.682063579559326,-999.2250366210938,1.4626598358154297,-1.2731496095657349,-3.6532142162323
1972,1605,5.205709934234619,5.682063579559326,-999.2250366210938,1.4626598358154297,-1.2731496095657349,-3.6532142162323
1997,1605,5.205709934234619,5.682063579559326,-999.2250366210938,1.4626598358154297,-1.2731496095657349,-3.6532142162323
1984,1605,5.205709934234619,5.682063579559326,-999.2250366210938,1.4626598358154297,-1.2731496095657349,-3.6532142162323
2068,1606,9.755614280700684,6.33778715133667,-993.2366333007812,-1.479187250137329,-2.533930778503418,4.0326361656188965
2052,1606,9.755614280700684,6.33778715133667,-993.2366333007812,-1.479187250137329,-2.533930778503418,4.0326361656188965
2032,1606,9.755614280700684,6.33778715133667,-993.2366333007812,-1.479187250137329,-2.533930778503418,4.0326361656188965
2040,1606,9.755614280700684,6.33778715133667,-993.2366333007812,-1.479187250137329,-2.533930778503418,4.0326361656188965
1999,1606,9.755614280700684,6.33778715133667,-993.2366333007812,-1.479187250137329,-2.533930778503418,4.0326361656188965
1983,1606,9.755614280700684,6.33778715133667,-993.2366333007812,-1.479187250137329,-2.533930778503418,4.0326361656188965
1963,1606,9.755614280700684,6.33778715133667,-993.2366333007812,-1.479187250137329,-2.533930778503418,4.0326361656188965
1971,1606,9.755614280700684,6.33778715133667,-993.2366333007812,-1.479187250137329,-2.533930778503418,4.0326361656188965
2062,1607,-0.3137142062187195,0.5774307250976562,-1005.6380615234375,-2.892423629760742,-2.9478933811187744,5.59958553314209
2057,1607,-0.3137142062187195,0.5774307250976562,-1005.6380615234375,-2.892423629760742,-2.9478933811187744,5.59958553314209
2036,1607,-0.3137142062187195,0.5774307250976562,-1005.6380615234375,-2.892423629760742,-2.9478933811187744,5.59958553314209
2050,1607,-0.3137142062187195,0.5774307250976562,-1005.6380615234375,-2.892423629760742,-2.9478933811187744,5.59958553314209
1993,1607,-0.3137142062187195,0.5774307250976562,-1005.6380615234375,-2.892423629760742,-2.9478933811187744,5.59958553314209
1988,1607,-0.3137142062187195,0.5774307250976562,-1005.6380615234375,-2.892423629760742,-2.9478933811187744,5.59958553314209
1967,1607,-0.3137142062187195,0.5774307250976562,-1005.6380615234375,-2.892423629760742,-2.9478933811187744,5.59958553314209
1981,1607,-0.3137142062187195,0.5774307250976562,-1005.6380615234375,-2.892423629760742,-2.9478933811187744,5.59958553314209
2036,1608,3.118959903717041,2.275792360305786,-1000.6146240234375,1.4762002229690552,1.3348369598388672,-1.4053157567977905
2051,1608,3.118959903717041,2.275792360305786,-1000.6146240234375,1.4762002229690552,1.3348369598388672,-1.4053157567977905
2059,1608,3.118959903717041,2.275792360305786,-1000.6146240234375,1.4762002229690552,1.3348369598388672,-1.4053157567977905
2060,1608,3.118959903717041,2.275792360305786,-1000.6146240234375,1.4762002229690552,1.3348369598388672,-1.4053157567977905
1967,1608,3.118959903717041,2.275792360305786,-1000.6146240234375,1.4762002229690552,1.3348369598388672,-1.4053157567977905
1982,1608,3.118959903717041,2.275792360305786,-1000.6146240234375,1.4762002229690552,1.3348369598388672,-1.4053157567977905
1990,1608,3.118959903717041,2.275792360305786,-1000.6146240234375,1.4762002229690552,1.3348369598388672,-1.4053157567977905
1991,1608,3.118959903717041,2.275792360305786,-1000.6146240234375,1.4762002229690552,1.3348369598388672,-1.4053157567977905
2043,1609,6.387582302093506,5.796186447143555,-1002.7789306640625,-1.31559157371521,5.5362772941589355,-2.085402011871338
2024,1609,6.387582302093506,5.796186447143555,-1002.7789306640625,-1.31559157371521,5.5362772941589355,-2.085402011871338
2063,1609,6.387582302093506,5.796186447143555,-1002.7789306640625,-1.31559157371521,5.5362772941589355,-2.085402011871338
2046,1609,6.387582302093506,5.796186447143555,-1002.7789306640625,-1.31559157371521,5.5362772941589355,-2.085402011871338
1974,1609,6.387582302093506,5.796186447143555,-1002.7789306640625,-1.31559157371521,5.5362772941589355,-2.085402011871338
1955,1609,6.387582302093506,5.796186447143555,-1002.7789306640625,-1.31559157371521,5.5362772941589355,-2.085402011871338
1994,1609,6.387582302093506,5.796186447143555,-1002.7789306640625,-1.31559157371521,5.5362772941589355,-2.085402011871338
1977,1609,6.387582302093506,5.796186447143555,-1002.7789306640625,-1.31559157371521,5.5362772941589355,-2.085402011871338
2070,1610,6.460747241973877,5.358027458190918,-995.1337280273438,-1.5678600072860718,3.614532470703125,-0.3768260180950165
2026,1610,6.460747241973877,5.358027458190918,-995.1337280273438,-1.5678600072860718,3.614532470703125,-0.3768260180950165
2043,1610,6.460747241973877,5.358027458190918,-995.1337280273438,-1.5678600072860718,3.614532470703125,-0.3768260180950165
2046,1610,6.460747241973877,5.358027458190918,-995.1337280273438,-1.5678600072860718,3.614532470703125,-0.3768260180950165
2001,1610,6.460747241973877,5.358027458190918,-995.1337280273438,-1.5678600072860718,3.614532470703125,-0.3768260180950165
1957,1610,6.460747241973877,5.358027458190918,-995.1337280273438,-1.5678600072860718,3.614532470703125,-0.3768260180950165
1974,1610,6.460747241973877,5.358027458190918,-995.1337280273438,-1.5678600072860718,3.614532470703125,-0.3768260180950165
1977,1610,6.460747241973877,5.358027458190918,-995.1337280273438,-1.5678600072860718,3.614532470703125,-0.3768260180950165
2030,1611,8.837045669555664,5.024511337280273,-997.1018676757812,0.875781238079071,-5.548361301422119,-2.8897147178649902
2031,1611,8.837045669555664,5.024511337280273,-997.1018676757812,0.875781238079071,-5.548361301422119,-2.8897147178649902
2067,1611,8.837045669555664,5.024511337280273,-997.1018676757812,0.875781238079071,-5.548361301422119,-2.8897147178649902
2045,1611,8.837045669555664,5.024511337280273,-997.1018676757812,0.875781238079071,-5.548361301422119,-2.8897147178649902
1961,1611,8.837045669555664,5.024511337280273,-997.1018676757812,0.875781238079071,-5.548361301422119,-2.8897147178649902
1962,1611,8.837045669555664,5.024511337280273,-997.1018676757812,0.875781238079071,-5.548361301422119,-2.8897147178649902
1998,1611,8.837045669555664,5.024511337280273,-997.1018676757812,0.875781238079071,-5.548361301422119,-2.8897147178649902
1976,1611,8.837045669555664,5.024511337280273,-997.1018676757812,0.875781238079071,-5.548361301422119,-2.8897147178649902
2015,1612,-2.435298442840576,-1.393178105354309,-998.2974853515625,2.448333263397217,-0.6501321196556091,-0.11937645077705383
2024,1612,-2.435298442840576,-1.393178105354309,-998.2974853515625,2.448333263397217,-0.6501321196556091,-0.11937645077705383
2043,1612,-2.435298442840576,-1.393178105354309,-998.2974853515625,2.448333263397217,-0.6501321196556091,-0.11937645077705383
2023,1612,-2.435298442840576,-1.393178105354309,-998.2974853515625,2.448333263397217,-0.6501321196556091,-0.11937645077705383
1946,1612,-2.435298442840576,-1.393178105354309,-998.2974853515625,2.448333263397217,-0.6501321196556091,-0.11937645077705383
1955,1612,-2.435298442840576,-1.393178105354309,-998.2974853515625,2.448333263397217,-0.6501321196556091,-0.11937645077705383
1974,1612,-2.435298442840576,-1.393178105354309,-998.2974853515625,2.448333263397217,-0.6501321196556091,-0.11937645077705383
1954,1612,-2.435298442840576,-1.393178105354309,-998.2974853515625,2.448333263397217,-0.6501321196556091,-0.11937645077705383
2012,1613,0.6232470273971558,-3.4048898220062256,-999.8699340820312,-0.8056479096412659,-0.4732509255409241,-1.0661464929580688
2058,1613,0.6232470273971558,-3.4048898220062256,-999.8699340820312,-0.8056479096412659,-0.4732509255409241,-1.0661464929580688
2027,1613,0.6232470273971558,-3.4048898220062256,-999.8699340820312,-0.8056479096412659,-0.4732509255409241,-1.0661464929580688
2022,1613,0.6232470273971558,-3.4048898220062256,-999.8699340820312,-0.8056479096412659,-0.4732509255409241,-1.0661464929580688
1943,1613,0.6232470273971558,-3.4048898220062256,-999.8699340820312,-0.8056479096412659,-0.4732509255409241,-1.0661464929580688
1989,1613,0.6232470273971558,-3.4048898220062256,-999.8699340820312,-0.8056479096412659,-0.4732509255409241,-1.0661464929580688
1958,1613,0.6232470273971558,-3.4048898220062256,-999.8699340820312,-0.8056479096412659,-0.4732509255409241,-1.0661464929580688
1953,1613,0.6232470273971558,-3.4048898220062256,-999.8699340820312,-0.8056479096412659,-0.4732509255409241,-1.0661464929580688
2028,1614,-1.7716867923736572,-1.7638341188430786,-999.3648681640625,-2.303264617919922,-0.5145756006240845,0.2592463791370392
2011,1614,-1.7716867923736572,-1.7638341188430786,-999.3648681640625,-2.303264617919922,-0.5145756006240845,0.2592463791370392
2021,1614,-1.7716867923736572,-1.7638341188430786,-999.3648681640625,-2.303264617919922,-0.5145756006240845,0.2592463791370392
2041,1614,-1.7716867923736572,-1.7638341188430786,-999.3648681640625,-2.303264617919922,-0.5145756006240845,0.2592463791370392
1959,1614,-1.7716867923736572,-1.7638341188430786,-999.3648681640625,-2.303264617919922,-0.5145756006240845,0.2592463791370392
1942,1614,-1.7716867923736572,-1.7638341188430786,-999.3648681640625,-2.303264617919922,-0.5145756006240845,0.2592463791370392
1952,1614,-1.7716867923736572,-1.7638341188430786,-999.3648681640625,-2.303264617919922,-0.5145756006240845,0.2592463791370392
1972,1614,-1.7716867923736572,-1.7638341188430786,-999.3648681640625,-2.303264617919922,-0.5145756006240845,0.2592463791370392
2029,1615,-5.246912002563477,0.45201700925827026,-998.4177856445312,0.9469032287597656,-0.1191120520234108,0.2059333175420761
2017,1615,-5.246912002563477,0.45201700925827026,-998.4177856445312,0.9469032287597656,-0.1191120520234108,0.2059333175420761
2016,1615,-5.246912002563477,0.45201700925827026,-998.4177856445312,0.9469032287597656,-0.1191120520234108,0.2059333175420761
2026,1615,-5.246912002563477,0.45201700925827026,-998.4177856445312,0.9469032287597656,-0.1191120520234108,0.2059333175420761
1960,1615,-5.246912002563477,0.45201700925827026,-998.4177856445312,0.9469032287597656,-0.1191120520234108,0.2059333175420761
1948,1615,-5.246912002563477,0.45201700925827026,-998.4177856445312,0.9469032287597656,-0.1191120520234108,0.2059333175420761
1947,1615,-5.246912002563477,0.45201700925827026,-998.4177856445312,0.9469032287597656,-0.1191120520234108,0.2059333175420761
1957,1615,-5.246912002563477,0.45201700925827026,-998.4177856445312,0.9469032287597656,-0.1191120520234108,0.2059333175420761
2041,1616,-4.395002365112305,-0.4680146276950836,-999.1160888671875,-1.9866881370544434,-0.12537597119808197,-0.20757751166820526
2021,1616,-4.395002365112305,-0.4680146276950836,-999.1160888671875,-1.9866881370544434,-0.12537597119808197,-0.20757751166820526
2010,1616,-4.395002365112305,-0.4680146276950836,-999.1160888671875,-1.9866881370544434,-0.12537597119808197,-0.20757751166820526
2030,1616,-4.395002365112305,-0.4680146276950836,-999.1160888671875,-1.9866881370544434,-0.12537597119808197,-0.20757751166820526
1972,1616,-4.395002365112305,-0.4680146276950836,-999.1160888671875,-1.9866881370544434,-0.12537597119808197,-0.20757751166820526
1952,1616,-4.395002365112305,-0.4680146276950836,-999.1160888671875,-1.9866881370544434,-0.12537597119808197,-0.20757751166820526
1941,1616,-4.395002365112305,-0.4680146276950836,-999.1160888671875,-1.9866881370544434,-0.12537597119808197,-0.20757751166820526
1961,1616,-4.395002365112305,-0.4680146276950836,-999.1160888671875,-1.9866881370544434,-0.12537597119808197,-0.20757751166820526
2065,1617,4.738827705383301,5.0080485343933105,-1000.697509765625,1.452738881111145,-3.3217356204986572,-1.9000824689865112
2058,1617,4.738827705383301,5.0080485343933105,-1000.697509765625,1.452738881111145,-3.3217356204986572,-1.9000824689865112
2028,1617,4.738827705383301,5.0080485343933105,-1000.697509765625,1.452738881111145,-3.3217356204986572,-1.9000824689865112
2053,1617,4.738827705383301,5.0080485343933105,-1000.697509765625,1.452738881111145,-3.3217356204986572,-1.9000824689865112
1996,1617,4.738827705383301,5.0080485343933105,-1000.697509765625,1.452738881111145,-3.3217356204986572,-1.9000824689865112
1989,1617,4.738827705383301,5.0080485343933105,-1000.697509765625,1.452738881111145,-3.3217356204986572,-1.9000824689865112
1959,1617,4.738827705383301,5.0080485343933105,-1000.697509765625,1.452738881111145,-3.3217356204986572,-1.9000824689865112
1984,1617,4.738827705383301,5.0080485343933105,-1000.697509765625,1.452738881111145,-3.3217356204986572,-1.9000824689865112
2030,1618,-5.83798360824585,-0.3650628626346588,-999.4833984375,-1.0518848896026611,0.3107180595397949,0.9061923027038574
2010,1618,-5.83798360824585,-0.3650628626346588,-999.4833984375,-1.0518848896026611,0.3107180595397949,0.9061923027038574
2009,1618,-5.83798360824585,-0.3650628626346588,-999.4833984375,-1.0518848896026611,0.3107180595397949,0.9061923027038574
2031,1618,-5.83798360824585,-0.3650628626346588,-999.4833984375,-1.0518848896026611,0.3107180595397949,0.9061923027038574
1961,1618,-5.83798360824585,-0.3650628626346588,-999.4833984375,-1.0518848896026611,0.3107180595397949,0.9061923027038574
1941,1618,-5.83798360824585,-0.3650628626346588,-999.4833984375,-1.0518848896026611,0.3107180595397949,0.9061923027038574
1940,1618,-5.83798360824585,-0.3650628626346588,-999.4833984375,-1.0518848896026611,0.3107180595397949,0.9061923027038574
1962,1618,-5.83798360824585,-0.3650628626346588,-999.4833984375,-1.0518848896026611,0.3107180595397949,0.9061923027038574
2031,1619,-5.266086101531982,0.21045373380184174,-998.5360717773438,0.7789761424064636,0.45310938358306885,-0.8084187507629395
2009,1619,-5.266086101531982,0.21045373380184174,-998.5360717773438,0.7789761424064636,0.45310938358306885,-0.8084187507629395
2008,1619,-5.266086101531982,0.21045373380184174,-998.5360717773438,0.7789761424064636,0.45310938358306885,-0.8084187507629395
2032,1619,-5.266086101531982,0.21045373380184174,-998.5360717773438,0.7789761424064636,0.45310938358306885,-0.8084187507629395
1962,1619,-5.266086101531982,0.21045373380184174,-998.5360717773438,0.7789761424064636,0.45310938358306885,-0.8084187507629395
1940,1619,-5.266086101531982,0.21045373380184174,-998.5360717773438,0.7789761424064636,0.45310938358306885,-0.8084187507629395
1939,1619,-5.266086101531982,0.21045373380184174,-998.5360717773438,0.7789761424064636,0.45310938358306885,-0.8084187507629395
1963,1619,-5.266086101531982,0.21045373380184174,-998.5360717773438,0.7789761424064636,0.45310938358306885,-0.8084187507629395
2062,1620,-1.4740560054779053,0.1351761370897293,-998.5054931640625,-2.323399782180786,1.1908758878707886,-4.265052318572998
2050,1620,-1.4740560054779053,0.1351761370897293,-998.5054931640625,-2.323399782180786,1.1908758878707886,-4.265052318572998
2061,1620,-1.4740560054779053,0.1351761370897293,-998.5054931640625,-2.323399782180786,1.1908758878707886,-4.265052318572998
2055,1620,-1.4740560054779053,0.1351761370897293,-998.5054931640625,-2.323399782180786,1.1908758878707886,-4.265052318572998
1993,1620,-1.4740560054779053,0.1351761370897293,-998.5054931640625,-2.323399782180786,1.1908758878707886,-4.265052318572998
1981,1620,-1.4740560054779053,0.1351761370897293,-998.5054931640625,-2.323399782180786,1.1908758878707886,-4.265052318572998
1992,1620,-1.4740560054779053,0.1351761370897293,-998.5054931640625,-2.323399782180786,1.1908758878707886,-4.265052318572998
1986,1620,-1.4740560054779053,0.1351761370897293,-998.5054931640625,-2.323399782180786,1.1908758878707886,-4.265052318572998
2017,1621,-4.36295747756958,0.07080361992120743,-1000.0388793945312,-0.7256460189819336,0.7698268294334412,-0.08035935461521149
2029,1621,-4.36295747756958,0.07080361992120743,-1000.0388793945312,-0.7256460189819336,0.7698268294334412,-0.08035935461521149
2037,1621,-4.36295747756958,0.07080361992120743,-1000.0388793945312,-0.7256460189819336,0.7698268294334412,-0.08035935461521149
2002,1621,-4.36295747756958,0.07080361992120743,-1000.0388793945312,-0.7256460189819336,0.7698268294334412,-0.08035935461521149
1948,1621,-4.36295747756958,0.07080361992120743,-1000.0388793945312,-0.7256460189819336,0.7698268294334412,-0.08035935461521149
1960,1621,-4.36295747756958,0.07080361992120743,-1000.0388793945312,-0.7256460189819336,0.7698268294334412,-0.08035935461521149
1968,1621,-4.36295747756958,0.07080361992120743,-1000.0388793945312,-0.7256460189819336,0.7698268294334412,-0.08035935461521149
1933,1621,-4.36295747756958,0.07080361992120743,-1000.0388793945312,-0.7256460189819336,0.7698268294334412,-0.08035935461521149
2032,1622,-5.0464653968811035,-1.0993123054504395,-1000.26123046875,1.9783151149749756,-0.23366568982601166,0.10970443487167358
2008,1622,-5.0464653968811035,-1.0993123054504395,-1000.26123046875,1.9783151149749756,-0.23366568982601166,0.10970443487167358
2020,1622,-5.0464653968811035,-1.0993123054504395,-1000.26123046875,1.9783151149749756,-0.23366568982601166,0.10970443487167358
2040,1622,-5.0464653968811035,-1.0993123054504395,-1000.26123046875,1.9783151149749756,-0.23366568982601166,0.10970443487167358
1963,1622,-5.0464653968811035,-1.0993123054504395,-1000.26123046875,1.9783151149749756,-0.23366568982601166,0.10970443487167358
1939,1622,-5.0464653968811035,-1.0993123054504395,-1000.26123046875,1.9783151149749756,-0.23366568982601166,0.10970443487167358
1951,1622,-5.0464653968811035,-1.0993123054504395,-1000.26123046875,1.9783151149749756,-0.23366568982601166,0.10970443487167358
1971,1622,-5.0464653968811035,-1.0993123054504395,-1000.26123046875,1.9783151149749756,-0.23366568982601166,0.10970443487167358
2040,1623,-2.30829119682312,-1.641175389289856,-998.196533203125,2.7765860557556152,0.1291690170764923,-0.4680061936378479
2020,1623,-2.30829119682312,-1.641175389289856,-998.196533203125,2.7765860557556152,0.1291690170764923,-0.4680061936378479
2007,1623,-2.30829119682312,-1.641175389289856,-998.196533203125,2.7765860557556152,0.1291690170764923,-0.4680061936378479
2033,1623,-2.30829119682312,-1.641175389289856,-998.196533203125,2.7765860557556152,0.1291690170764923,-0.4680061936378479
1971,1623,-2.30829119682312,-1.641175389289856,-998.196533203125,2.7765860557556152,0.1291690170764923,-0.4680061936378479
1951,1623,-2.30829119682312,-1.641175389289856,-998.196533203125,2.7765860557556152,0.1291690170764923,-0.4680061936378479
1938,1623,-2.30829119682312,-1.641175389289856,-998.196533203125,2.7765860557556152,0.1291690170764923,-0.4680061936378479
1964,1623,-2.30829119682312,-1.641175389289856,-998.196533203125,2.7765860557556152,0.1291690170764923,-0.4680061936378479
2033,1624,-1.197646975517273,-2.8551909923553467,-999.989990234375,1.9532110691070557,-0.6063106656074524,0.5426851511001587
2007,1624,-1.197646975517273,-2.8551909923553467,-999.989990234375,1.9532110691070557,-0.6063106656074524,0.5426851511001587
2006,1624,-1.197646975517273,-2.8551909923553467,-999.989990234375,1.9532110691070557,-0.6063106656074524,0.5426851511001587
2034,1624,-1.197646975517273,-2.8551909923553467,-999.989990234375,1.9532110691070557,-0.6063106656074524,0.5426851511001587
1964,1624,-1.197646975517273,-2.8551909923553467,-999.989990234375,1.9532110691070557,-0.6063106656074524,0.5426851511001587
1938,1624,-1.197646975517273,-2.8551909923553467,-999.989990234375,1.9532110691070557,-0.6063106656074524,0.5426851511001587
1937,1624,-1.197646975517273,-2.8551909923553467,-999.989990234375,1.9532110691070557,-0.6063106656074524,0.5426851511001587
1965,1624,-1.197646975517273,-2.8551909923553467,-999.989990234375,1.9532110691070557,-0.6063106656074524,0.5426851511001587
2034,1625,0.4514513611793518,-3.4102227687835693,-998.6832275390625,1.212587833404541,0.13158591091632843,0.5916577577590942
2006,1625,0.4514513611793518,-3.4102227687835693,-998.6832275390625,1.212587833404541,0.13158591091632843,0.5916577577590942
2019,1625,0.4514513611793518,-3.4102227687835693,-998.6832275390625,1.212587833404541,0.13158591091632843,0.5916577577590942
2039,1625,0.4514513611793518,-3.4102227687835693,-998.6832275390625,1.212587833404541,0.13158591091632843,0.5916577577590942
1965,1625,0.4514513611793518,-3.4102227687835693,-998.6832275390625,1.212587833404541,0.13158591091632843,0.5916577577590942
1937,1625,0.4514513611793518,-3.4102227687835693,-998.6832275390625,1.212587833404541,0.13158591091632843,0.5916577577590942
1950,1625,0.4514513611793518,-3.4102227687835693,-998.6832275390625,1.212587833404541,0.13158591091632843,0.5916577577590942
1970,1625,0.4514513611793518,-3.4102227687835693,-998.6832275390625,1.212587833404541,0.13158591091632843,0.5916577577590942
2039,1626,-0.5843794345855713,-7.603176593780518,-999.931640625,0.26636093854904175,0.18376395106315613,-0.661274790763855
2019,1626,-0.5843794345855713,-7.603176593780518,-999.931640625,0.26636093854904175,0.18376395106315613,-0.661274790763855
2005,1626,-0.5843794345855713,-7.603176593780518,-999.931640625,0.26636093854904175,0.18376395106315613,-0.661274790763855
2035,1626,-0.5843794345855713,-7.603176593780518,-999.931640625,0.26636093854904175,0.18376395106315613,-0.661274790763855
1970,1626,-0.5843794345855713,-7.603176593780518,-999.931640625,0.26636093854904175,0.18376395106315613,-0.661274790763855
1950,1626,-0.5843794345855713,-7.603176593780518,-999.931640625,0.26636093854904175,0.18376395106315613,-0.661274790763855
1936,1626,-0.5843794345855713,-7.603176593780518,-999.931640625,0.26636093854904175,0.18376395106315613,-0.661274790763855
1966,1626,-0.5843794345855713,-7.603176593780518,-999.931640625,0.26636093854904175,0.18376395106315613,-0.661274790763855
2059,1627,0.6520645022392273,-1.2812538146972656,-999.7514038085938,-1.3906773328781128,0.37866365909576416,1.2416983842849731
2004,1627,0.6520645022392273,-1.2812538146972656,-999.7514038085938,-1.3906773328781128,0.37866365909576416,1.2416983842849731
2003,1627,0.6520645022392273,-1.2812538146972656,-999.7514038085938,-1.3906773328781128,0.37866365909576416,1.2416983842849731
2060,1627,0.6520645022392273,-1.2812538146972656,-999.7514038085938,-1.3906773328781128,0.37866365909576416,1.2416983842849731
1990,1627,0.6520645022392273,-1.2812538146972656,-999.7514038085938,-1.3906773328781128,0.37866365909576416,1.2416983842849731
1935,1627,0.6520645022392273,-1.2812538146972656,-999.7514038085938,-1.3906773328781128,0.37866365909576416,1.2416983842849731
1934,1627,0.6520645022392273,-1.2812538146972656,-999.7514038085938,-1.3906773328781128,0.37866365909576416,1.2416983842849731
1991,1627,0.6520645022392273,-1.2812538146972656,-999.7514038085938,-1.3906773328781128,0.37866365909576416,1.2416983842849731
2038,1628,-3.1760451793670654,0.4488195478916168,-998.765625,-1.621830701828003,-0.04162326455116272,0.6030517816543579
2018,1628,-3.1760451793670654,0.4488195478916168,-998.765625,-1.621830701828003,-0.04162326455116272,0.6030517816543579
2002,1628,-3.1760451793670654,0.4488195478916168,-998.765625,-1.621830701828003,-0.04162326455116272,0.6030517816543579
2037,1628,-3.1760451793670654,0.4488195478916168,-998.765625,-1.621830701828003,-0.04162326455116272,0.6030517816543579
1969,1628,-3.1760451793670654,0.4488195478916168,-998.765625,-1.621830701828003,-0.04162326455116272,0.6030517816543579
1949,1628,-3.1760451793670654,0.4488195478916168,-998.765625,-1.621830701828003,-0.04162326455116272,0.6030517816543579
1933,1628,-3.1760451793670654,0.4488195478916168,-998.765625,-1.621830701828003,-0.04162326455116272,0.6030517816543579
1968,1628,-3.1760451793670654,0.4488195478916168,-998.765625,-1.621830701828003,-0.04162326455116272,0.6030517816543579
2061,1629,10.052111625671387,6.6745147705078125,-992.7958374023438,1.4721159934997559,2.9212656021118164,2.241659641265869
2037,1629,10.052111625671387,6.6745147705078125,-992.7958374023438,1.4721159934997559,2.9212656021118164,2.241659641265869
2029,1629,10.052111625671387,6.6745147705078125,-992.7958374023438,1.4721159934997559,2.9212656021118164,2.241659641265869
2044,1629,10.052111625671387,6.6745147705078125,-992.7958374023438,1.4721159934997559,2.9212656021118164,2.241659641265869
1992,1629,10.052111625671387,6.6745147705078125,-992.7958374023438,1.4721159934997559,2.9212656021118164,2.241659641265869
1968,1629,10.052111625671387,6.6745147705078125,-992.7958374023438,1.4721159934997559,2.9212656021118164,2.241659641265869
1960,1629,10.052111625671387,6.6745147705078125,-992.7958374023438,1.4721159934997559,2.9212656021118164,2.241659641265869
1975,1629,10.052111625671387,6.6745147705078125,-992.7958374023438,1.4721159934997559,2.9212656021118164,2.241659641265869
2060,1630,7.323170185089111,7.236588478088379,-995.8900146484375,0.5707927942276001,0.9901009798049927,3.8926568031311035
2038,1630,7.323170185089111,7.236588478088379,-995.8900146484375,0.5707927942276001,0.9901009798049927,3.8926568031311035
2050,1630,7.323170185089111,7.236588478088379,-995.8900146484375,0.5707927942276001,0.9901009798049927,3.8926568031311035
2036,1630,7.323170185089111,7.236588478088379,-995.8900146484375,0.5707927942276001,0.9901009798049927,3.8926568031311035
1991,1630,7.323170185089111,7.236588478088379,-995.8900146484375,0.5707927942276001,0.9901009798049927,3.8926568031311035
1969,1630,7.323170185089111,7.236588478088379,-995.8900146484375,0.5707927942276001,0.9901009798049927,3.8926568031311035
1981,1630,7.323170185089111,7.236588478088379,-995.8900146484375,0.5707927942276001,0.9901009798049927,3.8926568031311035
1967,1630,7.323170185089111,7.236588478088379,-995.8900146484375,0.5707927942276001,0.9901009798049927,3.8926568031311035
2035,1631,-0.4368775486946106,-6.113977909088135,-998.9663696289062,-1.6127420663833618,-0.4303058087825775,-0.9355984330177307
2005,1631,-0.4368775486946106,-6.113977909088135,-998.9663696289062,-1.6127420663833618,-0.4303058087825775,-0.9355984330177307
2004,1631,-0.4368775486946106,-6.113977909088135,-998.9663696289062,-1.6127420663833618,-0.4303058087825775,-0.9355984330177307
2059,1631,-0.4368775486946106,-6.113977909088135,-998.9663696289062,-1.6127420663833618,-0.4303058087825775,-0.9355984330177307
1966,1631,-0.4368775486946106,-6.113977909088135,-998.9663696289062,-1.6127420663833618,-0.4303058087825775,-0.9355984330177307
1936,1631,-0.4368775486946106,-6.113977909088135,-998.9663696289062,-1.6127420663833618,-0.4303058087825775,-0.9355984330177307
1935,1631,-0.4368775486946106,-6.113977909088135,-998.9663696289062,-1.6127420663833618,-0.4303058087825775,-0.9355984330177307
1990,1631,-0.4368775486946106,-6.113977909088135,-998.9663696289062,-1.6127420663833618,-0.4303058087825775,-0.9355984330177307
2044,1632,7.772829055786133,4.45330286026001,-1004.4295654296875,-1.3144655227661133,5.184676647186279,-3.218825340270996
2029,1632,7.772829055786133,4.45330286026001,-1004.4295654296875,-1.3144655227661133,5.184676647186279,-3.218825340270996
2026,1632,7.772829055786133,4.45330286026001,-1004.4295654296875,-1.3144655227661133,5.184676647186279,-3.218825340270996
2070,1632,7.772829055786133,4.45330286026001,-1004.4295654296875,-1.3144655227661133,5.184676647186279,-3.218825340270996
1975,1632,7.772829055786133,4.45330286026001,-1004.4295654296875,-1.3144655227661133,5.184676647186279,-3.218825340270996
1960,1632,7.772829055786133,4.45330286026001,-1004.4295654296875,-1.3144655227661133,5.184676647186279,-3.218825340270996
1957,1632,7.772829055786133,4.45330286026001,-1004.4295654296875,-1.3144655227661133,5.184676647186279,-3.218825340270996
2001,1632,7.772829055786133,4.45330286026001,-1004.4295654296875,-1.3144655227661133,5.184676647186279,-3.218825340270996
2055,1633,1.3387876749038696,3.180866241455078,-999.3463134765625,2.3554627895355225,1.4797818660736084,-2.2279317378997803
2070,1633,1.3387876749038696,3.180866241455078,-999.3463134765625,2.3554627895355225,1.4797818660736084,-2.2279317378997803
2046,1633,1.3387876749038696,3.180866241455078,-999.3463134765625,2.3554627895355225,1.4797818660736084,-2.2279317378997803
2054,1633,1.3387876749038696,3.180866241455078,-999.3463134765625,2.3554627895355225,1.4797818660736084,-2.2279317378997803
1986,1633,1.3387876749038696,3.180866241455078,-999.3463134765625,2.3554627895355225,1.4797818660736084,-2.2279317378997803
2001,1633,1.3387876749038696,3.180866241455078,-999.3463134765625,2.3554627895355225,1.4797818660736084,-2.2279317378997803
1977,1633,1.3387876749038696,3.180866241455078,-999.3463134765625,2.3554627895355225,1.4797818660736084,-2.2279317378997803
1985,1633,1.3387876749038696,3.180866241455078,-999.3463134765625,2.3554627895355225,1.4797818660736084,-2.2279317378997803
2025,1634,4.986137866973877,8.252503395080566,-1000.107666015625,-0.5651085376739502,4.779694557189941,-4.618821620941162
2042,1634,4.986137866973877,8.252503395080566,-1000.107666015625,-0.5651085376739502,4.779694557189941,-4.618821620941162
2064,1634,4.986137866973877,8.252503395080566,-1000.107666015625,-0.5651085376739502,4.779694557189941,-4.618821620941162
2049,1634,4.986137866973877,8.252503395080566,-1000.107666015625,-0.5651085376739502,4.779694557189941,-4.618821620941162
1956,1634,4.986137866973877,8.252503395080566,-1000.107666015625,-0.5651085376739502,4.779694557189941,-4.618821620941162
1973,1634,4.986137866973877,8.252503395080566,-1000.107666015625,-0.5651085376739502,4.779694557189941,-4.618821620941162
1995,1634,4.986137866973877,8.252503395080566,-1000.107666015625,-0.5651085376739502,4.779694557189941,-4.618821620941162
1980,1634,4.986137866973877,8.252503395080566,-1000.107666015625,-0.5651085376739502,4.779694557189941,-4.618821620941162
2049,1635,2.0701451301574707,-5.43402624130249,-1001.3767700195312,0.4441591203212738,-0.5045046210289001,2.7801783084869385
2064,1635,2.0701451301574707,-5.43402624130249,-1001.3767700195312,0.4441591203212738,-0.5045046210289001,2.7801783084869385
2048,1635,2.0701451301574707,-5.43402624130249,-1001.3767700195312,0.4441591203212738,-0.5045046210289001,2.7801783084869385
2054,1635,2.0701451301574707,-5.43402624130249,-1001.3767700195312,0.4441591203212738,-0.5045046210289001,2.7801783084869385
1980,1635,2.0701451301574707,-5.43402624130249,-1001.3767700195312,0.4441591203212738,-0.5045046210289001,2.7801783084869385
1995,1635,2.0701451301574707,-5.43402624130249,-1001.3767700195312,0.4441591203212738,-0.5045046210289001,2.7801783084869385
1979,1635,2.0701451301574707,-5.43402624130249,-1001.3767700195312,0.4441591203212738,-0.5045046210289001,2.7801783084869385
1985,1635,2.0701451301574707,-5.43402624130249,-1001.3767700195312,0.4441591203212738,-0.5045046210289001,2.7801783084869385
2051,1636,6.406552791595459,11.15771484375,-997.0474853515625,0.5085049867630005,1.2179715633392334,8.423565864562988
2039,1636,6.406552791595459,11.15771484375,-997.0474853515625,0.5085049867630005,1.2179715633392334,8.423565864562988
2035,1636,6.406552791595459,11.15771484375,-997.0474853515625,0.5085049867630005,1.2179715633392334,8.423565864562988
2059,1636,6.406552791595459,11.15771484375,-997.0474853515625,0.5085049867630005,1.2179715633392334,8.423565864562988
1982,1636,6.406552791595459,11.15771484375,-997.0474853515625,0.5085049867630005,1.2179715633392334,8.423565864562988
1970,1636,6.406552791595459,11.15771484375,-997.0474853515625,0.5085049867630005,1.2179715633392334,8.423565864562988
1966,1636,6.406552791595459,11.15771484375,-997.0474853515625,0.5085049867630005,1.2179715633392334,8.423565864562988
1990,1636,6.406552791595459,11.15771484375,-997.0474853515625,0.5085049867630005,1.2179715633392334,8.423565864562988
2049,1637,-2.447772979736328,-3.331946611404419,-1005.7332153320312,2.803509473800659,-4.578761100769043,-0.8361149430274963
2054,1637,-2.447772979736328,-3.331946611404419,-1005.7332153320312,2.803509473800659,-4.578761100769043,-0.8361149430274963
2046,1637,-2.447772979736328,-3.331946611404419,-1005.7332153320312,2.803509473800659,-4.578761100769043,-0.8361149430274963
2063,1637,-2.447772979736328,-3.331946611404419,-1005.7332153320312,2.803509473800659,-4.578761100769043,-0.8361149430274963
1980,1637,-2.447772979736328,-3.331946611404419,-1005.7332153320312,2.803509473800659,-4.578761100769043,-0.8361149430274963
1985,1637,-2.447772979736328,-3.331946611404419,-1005.7332153320312,2.803509473800659,-4.578761100769043,-0.8361149430274963
1977,1637,-2.447772979736328,-3.331946611404419,-1005.7332153320312,2.803509473800659,-4.578761100769043,-0.8361149430274963
1994,1637,-2.447772979736328,-3.331946611404419,-1005.7332153320312,2.803509473800659,-4.578761100769043,-0.8361149430274963
2027,1638,5.518991947174072,8.076701164245605,-997.0086669921875,0.6281866431236267,-0.6232097744941711,-1.8225842714309692
2058,1638,5.518991947174072,8.076701164245605,-997.0086669921875,0.6281866431236267,-0.6232097744941711,-1.8225842714309692
2065,1638,5.518991947174072,8.076701164245605,-997.0086669921875,0.6281866431236267,-0.6232097744941711,-1.8225842714309692
2048,1638,5.518991947174072,8.076701164245605,-997.0086669921875,0.6281866431236267,-0.6232097744941711,-1.8225842714309692
1958,1638,5.518991947174072,8.076701164245605,-997.0086669921875,0.6281866431236267,-0.6232097744941711,-1.8225842714309692
1989,1638,5.518991947174072,8.076701164245605,-997.0086669921875,0.6281866431236267,-0.6232097744941711,-1.8225842714309692
1996,1638,5.518991947174072,8.076701164245605,-997.0086669921875,0.6281866431236267,-0.6232097744941711,-1.8225842714309692
1979,1638,5.518991947174072,8.076701164245605,-997.0086669921875,0.6281866431236267,-0.6232097744941711,-1.8225842714309692
2069,1639,-0.8756812214851379,-4.432791709899902,-1002.1834716796875,-0.22648701071739197,1.939210057258606,-0.25507795810699463
2051,1639,-0.8756812214851379,-4.432791709899902,-1002.1834716796875,-0.22648701071739197,1.939210057258606,-0.25507795810699463
2036,1639,-0.8756812214851379,-4.432791709899902,-1002.1834716796875,-0.22648701071739197,1.939210057258606,-0.25507795810699463
2057,1639,-0.8756812214851379,-4.432791709899902,-1002.1834716796875,-0.22648701071739197,1.939210057258606,-0.25507795810699463
2000,1639,-0.8756812214851379,-4.432791709899902,-1002.1834716796875,-0.22648701071739197,1.939210057258606,-0.25507795810699463
1982,1639,-0.8756812214851379,-4.432791709899902,-1002.1834716796875,-0.22648701071739197,1.939210057258606,-0.25507795810699463
1967,1639,-0.8756812214851379,-4.432791709899902,-1002.1834716796875,-0.22648701071739197,1.939210057258606,-0.25507795810699463
1988,1639,-0.8756812214851379,-4.432791709899902,-1002.1834716796875,-0.22648701071739197,1.939210057258606,-0.25507795810699463
2045,1640,-5.010654449462891,1.7236223220825195,-1001.927490234375,-0.3582974374294281,4.515982151031494,1.0323147773742676
2067,1640,-5.010654449462891,1.7236223220825195,-1001.927490234375,-0.3582974374294281,4.515982151031494,1.0323147773742676
2052,1640,-5.010654449462891,1.7236223220825195,-1001.927490234375,-0.3582974374294281,4.515982151031494,1.0323147773742676
2056,1640,-5.010654449462891,1.7236223220825195,-1001.927490234375,-0.3582974374294281,4.515982151031494,1.0323147773742676
1976,1640,-5.010654449462891,1.7236223220825195,-1001.927490234375,-0.3582974374294281,4.515982151031494,1.0323147773742676
1998,1640,-5.010654449462891,1.7236223220825195,-1001.927490234375,-0.3582974374294281,4.515982151031494,1.0323147773742676
1983,1640,-5.010654449462891,1.7236223220825195,-1001.927490234375,-0.3582974374294281,4.515982151031494,1.0323147773742676
1987,1640,-5.010654449462891,1.7236223220825195,-1001.927490234375,-0.3582974374294281,4.515982151031494,1.0323147773742676
2068,1641,4.201022624969482,4.884350299835205,-1004.520751953125,-1.8726959228515625,-4.922179698944092,2.6130967140197754
2040,1641,4.201022624969482,4.884350299835205,-1004.520751953125,-1.8726959228515625,-4.922179698944092,2.6130967140197754
2033,1641,4.201022624969482,4.884350299835205,-1004.520751953125,-1.8726959228515625,-4.922179698944092,2.6130967140197754
2047,1641,4.201022624969482,4.884350299835205,-1004.520751953125,-1.8726959228515625,-4.922179698944092,2.6130967140197754
1999,1641,4.201022624969482,4.884350299835205,-1004.520751953125,-1.8726959228515625,-4.922179698944092,2.6130967140197754
1971,1641,4.201022624969482,4.884350299835205,-1004.520751953125,-1.8726959228515625,-4.922179698944092,2.6130967140197754
1964,1641,4.201022624969482,4.884350299835205,-1004.520751953125,-1.8726959228515625,-4.922179698944092,2.6130967140197754
1978,1641,4.201022624969482,4.884350299835205,-1004.520751953125,-1.8726959228515625,-4.922179698944092,2.6130967140197754
2057,1642,3.7392749786376953,1.7986254692077637,-1002.0126953125,2.5611367225646973,-1.7609121799468994,2.8925344944000244
2056,1642,3.7392749786376953,1.7986254692077637,-1002.0126953125,2.5611367225646973,-1.7609121799468994,2.8925344944000244
2047,1642,3.7392749786376953,1.7986254692077637,-1002.0126953125,2.5611367225646973,-1.7609121799468994,2.8925344944000244
2069,1642,3.7392749786376953,1.7986254692077637,-1002.0126953125,2.5611367225646973,-1.7609121799468994,2.8925344944000244
1988,1642,3.7392749786376953,1.7986254692077637,-1002.0126953125,2.5611367225646973,-1.7609121799468994,2.8925344944000244
1987,1642,3.7392749786376953,1.7986254692077637,-1002.0126953125,2.5611367225646973,-1.7609121799468994,2.8925344944000244
1978,1642,3.7392749786376953,1.7986254692077637,-1002.0126953125,2.5611367225646973,-1.7609121799468994,2.8925344944000244
2000,1642,3.7392749786376953,1.7986254692077637,-1002.0126953125,2.5611367225646973,-1.7609121799468994,2.8925344944000244
2057,1643,7.856359958648682,8.792829513549805,-1001.7518310546875,0.29050424695014954,8.356812477111816,0.27951085567474365
2062,1643,7.856359958648682,8.792829513549805,-1001.7518310546875,0.29050424695014954,8.356812477111816,0.27951085567474365
2055,1643,7.856359958648682,8.792829513549805,-1001.7518310546875,0.29050424695014954,8.356812477111816,0.27951085567474365
2054,1643,7.856359958648682,8.792829513549805,-1001.7518310546875,0.29050424695014954,8.356812477111816,0.27951085567474365
1988,1643,7.856359958648682,8.792829513549805,-1001.7518310546875,0.29050424695014954,8.356812477111816,0.27951085567474365
1993,1643,7.856359958648682,8.792829513549805,-1001.7518310546875,0.29050424695014954,8.356812477111816,0.27951085567474365
1986,1643,7.856359958648682,8.792829513549805,-1001.7518310546875,0.29050424695014954,8.356812477111816,0.27951085567474365
1985,1643,7.856359958648682,8.792829513549805,-1001.7518310546875,0.29050424695014954,8.356812477111816,0.27951085567474365
2047,1644,-3.7507779598236084,-1.9910998344421387,-1002.9042358398438,1.4506975412368774,-0.4245457947254181,-6.286783218383789
2056,1644,-3.7507779598236084,-1.9910998344421387,-1002.9042358398438,1.4506975412368774,-0.4245457947254181,-6.286783218383789
2052,1644,-3.7507779598236084,-1.9910998344421387,-1002.9042358398438,1.4506975412368774,-0.4245457947254181,-6.286783218383789
2068,1644,-3.7507779598236084,-1.9910998344421387,-1002.9042358398438,1.4506975412368774,-0.4245457947254181,-6.286783218383789
1978,1644,-3.7507779598236084,-1.9910998344421387,-1002.9042358398438,1.4506975412368774,-0.4245457947254181,-6.286783218383789
1987,1644,-3.7507779598236084,-1.9910998344421387,-1002.9042358398438,1.4506975412368774,-0.4245457947254181,-6.286783218383789
1983,1644,-3.7507779598236084,-1.9910998344421387,-1002.9042358398438,1.4506975412368774,-0.4245457947254181,-6.286783218383789
1999,1644,-3.7507779598236084,-1.9910998344421387,-1002.9042358398438,1.4506975412368774,-0.4245457947254181,-6.286783218383789
2058,1645,-0.4958828389644623,-1.6553728580474854,-999.052978515625,-2.0253026485443115,0.19423633813858032,-0.3933171331882477
2012,1645,-0.4958828389644623,-1.6553728580474854,-999.052978515625,-2.0253026485443115,0.19423633813858032,-0.3933171331882477
2011,1645,-0.4958828389644623,-1.6553728580474854,-999.052978515625,-2.0253026485443115,0.19423633813858032,-0.3933171331882477
2028,1645,-0.4958828389644623,-1.6553728580474854,-999.052978515625,-2.0253026485443115,0.19423633813858032,-0.3933171331882477
1989,1645,-0.4958828389644623,-1.6553728580474854,-999.052978515625,-2.0253026485443115,0.19423633813858032,-0.3933171331882477
1943,1645,-0.4958828389644623,-1.6553728580474854,-999.052978515625,-2.0253026485443115,0.19423633813858032,-0.3933171331882477
1942,1645,-0.4958828389644623,-1.6553728580474854,-999.052978515625,-2.0253026485443115,0.19423633813858032,-0.3933171331882477
1959,1645,-0.4958828389644623,-1.6553728580474854,-999.052978515625,-2.0253026485443115,0.19423633813858032,-0.3933171331882477
2060,1646,-1.440993309020996,-0.6387554407119751,-999.5164184570312,-1.6646883487701416,0.9246832728385925,0.4719449281692505
2003,1646,-1.440993309020996,-0.6387554407119751,-999.5164184570312,-1.6646883487701416,0.9246832728385925,0.4719449281692505
2018,1646,-1.440993309020996,-0.6387554407119751,-999.5164184570312,-1.6646883487701416,0.9246832728385925,0.4719449281692505
2038,1646,-1.440993309020996,-0.6387554407119751,-999.5164184570312,-1.6646883487701416,0.9246832728385925,0.4719449281692505
1991,1646,-1.440993309020996,-0.6387554407119751,-999.5164184570312,-1.6646883487701416,0.9246832728385925,0.4719449281692505
1934,1646,-1.440993309020996,-0.6387554407119751,-999.5164184570312,-1.6646883487701416,0.9246832728385925,0.4719449281692505
1949,1646,-1.440993309020996,-0.6387554407119751,-999.5164184570312,-1.6646883487701416,0.9246832728385925,0.4719449281692505
1969,1646,-1.440993309020996,-0.6387554407119751,-999.5164184570312,-1.6646883487701416,0.9246832728385925,0.4719449281692505
2037,1647,4.87734842300415,3.1882483959198,-1004.4513549804688,1.1461832523345947,5.223551273345947,-1.4695316553115845
2061,1647,4.87734842300415,3.1882483959198,-1004.4513549804688,1.1461832523345947,5.223551273345947,-1.4695316553115845
2050,1647,4.87734842300415,3.1882483959198,-1004.4513549804688,1.1461832523345947,5.223551273345947,-1.4695316553115845
2038,1647,4.87734842300415,3.1882483959198,-1004.4513549804688,1.1461832523345947,5.223551273345947,-1.4695316553115845
1968,1647,4.87734842300415,3.1882483959198,-1004.4513549804688,1.1461832523345947,5.223551273345947,-1.4695316553115845
1992,1647,4.87734842300415,3.1882483959198,-1004.4513549804688,1.1461832523345947,5.223551273345947,-1.4695316553115845
1981,1647,4.87734842300415,3.1882483959198,-1004.4513549804688,1.1461832523345947,5.223551273345947,-1.4695316553115845
1969,1647,4.87734842300415,3.1882483959198,-1004.4513549804688,1.1461832523345947,5.223551273345947,-1.4695316553115845
2061,1648,-8.003856658935547,-2.903759002685547,-1005.987548828125,0.09783787280321121,-5.637333393096924,4.046001434326172
2044,1648,-8.003856658935547,-2.903759002685547,-1005.987548828125,0.09783787280321121,-5.637333393096924,4.046001434326172
2070,1648,-8.003856658935547,-2.903759002685547,-1005.987548828125,0.09783787280321121,-5.637333393096924,4.046001434326172
2055,1648,-8.003856658935547,-2.903759002685547,-1005.987548828125,0.09783787280321121,-5.637333393096924,4.046001434326172
1992,1648,-8.003856658935547,-2.903759002685547,-1005.987548828125,0.09783787280321121,-5.637333393096924,4.046001434326172
1975,1648,-8.003856658935547,-2.903759002685547,-1005.987548828125,0.09783787280321121,-5.637333393096924,4.046001434326172
2001,1648,-8.003856658935547,-2.903759002685547,-1005.987548828125,0.09783787280321121,-5.637333393096924,4.046001434326172
1986,1648,-8.003856658935547,-2.903759002685547,-1005.987548828125,0.09783787280321121,-5.637333393096924,4.046001434326172
2063,1649,5.976083755493164,8.164119720458984,-993.9805908203125,-1.87192702293396,1.805647611618042,-3.6064863204956055
2024,1649,5.976083755493164,8.164119720458984,-993.9805908203125,-1.87192702293396,1.805647611618042,-3.6064863204956055
2025,1649,5.976083755493164,8.164119720458984,-993.9805908203125,-1.87192702293396,1.805647611618042,-3.6064863204956055
2049,1649,5.976083755493164,8.164119720458984,-993.9805908203125,-1.87192702293396,1.805647611618042,-3.6064863204956055
1994,1649,5.976083755493164,8.164119720458984,-993.9805908203125,-1.87192702293396,1.805647611618042,-3.6064863204956055
1955,1649,5.976083755493164,8.164119720458984,-993.9805908203125,-1.87192702293396,1.805647611618042,-3.6064863204956055
1956,1649,5.976083755493164,8.164119720458984,-993.9805908203125,-1.87192702293396,1.805647611618042,-3.6064863204956055
1980,1649,5.976083755493164,8.164119720458984,-993.9805908203125,-1.87192702293396,1.805647611618042,-3.6064863204956055
2064,1650,4.328193187713623,7.845272541046143,-999.5464477539062,0.17177335917949677,-2.625636339187622,-4.88156795501709
2042,1650,4.328193187713623,7.845272541046143,-999.5464477539062,0.17177335917949677,-2.625636339187622,-4.88156795501709
2027,1650,4.328193187713623,7.845272541046143,-999.5464477539062,0.17177335917949677,-2.625636339187622,-4.88156795501709
2048,1650,4.328193187713623,7.845272541046143,-999.5464477539062,0.17177335917949677,-2.625636339187622,-4.88156795501709
1995,1650,4.328193187713623,7.845272541046143,-999.5464477539062,0.17177335917949677,-2.625636339187622,-4.88156795501709
1973,1650,4.328193187713623,7.845272541046143,-999.5464477539062,0.17177335917949677,-2.625636339187622,-4.88156795501709
1958,1650,4.328193187713623,7.845272541046143,-999.5464477539062,0.17177335917949677,-2.625636339187622,-4.88156795501709
1979,1650,4.328193187713623,7.845272541046143,-999.5464477539062,0.17177335917949677,-2.625636339187622,-4.88156795501709
2066,1651,7.306186676025391,5.526915073394775,-1000.3443603515625,1.2372071743011475,-4.9573540687561035,-2.273444890975952
2041,1651,7.306186676025391,5.526915073394775,-1000.3443603515625,1.2372071743011475,-4.9573540687561035,-2.273444890975952
2030,1651,7.306186676025391,5.526915073394775,-1000.3443603515625,1.2372071743011475,-4.9573540687561035,-2.273444890975952
2045,1651,7.306186676025391,5.526915073394775,-1000.3443603515625,1.2372071743011475,-4.9573540687561035,-2.273444890975952
1997,1651,7.306186676025391,5.526915073394775,-1000.3443603515625,1.2372071743011475,-4.9573540687561035,-2.273444890975952
1972,1651,7.306186676025391,5.526915073394775,-1000.3443603515625,1.2372071743011475,-4.9573540687561035,-2.273444890975952
1961,1651,7.306186676025391,5.526915073394775,-1000.3443603515625,1.2372071743011475,-4.9573540687561035,-2.273444890975952
1976,1651,7.306186676025391,5.526915073394775,-1000.3443603515625,1.2372071743011475,-4.9573540687561035,-2.273444890975952
2067,1652,7.659753322601318,4.58477258682251,-1002.3757934570312,0.16462041437625885,-6.711740493774414,2.2919418811798096
2031,1652,7.659753322601318,4.58477258682251,-1002.3757934570312,0.16462041437625885,-6.711740493774414,2.2919418811798096
2032,1652,7.659753322601318,4.58477258682251,-1002.3757934570312,0.16462041437625885,-6.711740493774414,2.2919418811798096
2052,1652,7.659753322601318,4.58477258682251,-1002.3757934570312,0.16462041437625885,-6.711740493774414,2.2919418811798096
1998,1652,7.659753322601318,4.58477258682251,-1002.3757934570312,0.16462041437625885,-6.711740493774414,2.2919418811798096
1962,1652,7.659753322601318,4.58477258682251,-1002.3757934570312,0.16462041437625885,-6.711740493774414,2.2919418811798096
1963,1652,7.659753322601318,4.58477258682251,-1002.3757934570312,0.16462041437625885,-6.711740493774414,2.2919418811798096
1983,1652,7.659753322601318,4.58477258682251,-1002.3757934570312,0.16462041437625885,-6.711740493774414,2.2919418811798096
2069,1653,2.8321423530578613,3.8194580078125,-1001.7483520507812,-1.8092256784439087,-3.027920722961426,0.10194741189479828
2034,1653,2.8321423530578613,3.8194580078125,-1001.7483520507812,-1.8092256784439087,-3.027920722961426,0.10194741189479828
2039,1653,2.8321423530578613,3.8194580078125,-1001.7483520507812,-1.8092256784439087,-3.027920722961426,0.10194741189479828
2051,1653,2.8321423530578613,3.8194580078125,-1001.7483520507812,-1.8092256784439087,-3.027920722961426,0.10194741189479828
2000,1653,2.8321423530578613,3.8194580078125,-1001.7483520507812,-1.8092256784439087,-3.027920722961426,0.10194741189479828
1965,1653,2.8321423530578613,3.8194580078125,-1001.7483520507812,-1.8092256784439087,-3.027920722961426,0.10194741189479828
1970,1653,2.8321423530578613,3.8194580078125,-1001.7483520507812,-1.8092256784439087,-3.027920722961426,0.10194741189479828
1982,1653,2.8321423530578613,3.8194580078125,-1001.7483520507812,-1.8092256784439087,-3.027920722961426,0.10194741189479828
2094,1654,6.862614631652832,7.416881084442139,-996.0672607421875,-0.3078482449054718,2.1682960987091064,-3.367490768432617
2083,1654,6.862614631652832,7.416881084442139,-996.0672607421875,-0.3078482449054718,2.1682960987091064,-3.367490768432617
2082,1654,6.862614631652832,7.416881084442139,-996.0672607421875,-0.3078482449054718,2.1682960987091064,-3.367490768432617
2111,1654,6.862614631652832,7.416881084442139,-996.0672607421875,-0.3078482449054718,2.1682960987091064,-3.367490768432617
2025,1654,6.862614631652832,7.416881084442139,-996.0672607421875,-0.3078482449054718,2.1682960987091064,-3.367490768432617
2014,1654,6.862614631652832,7.416881084442139,-996.0672607421875,-0.3078482449054718,2.1682960987091064,-3.367490768432617
2013,1654,6.862614631652832,7.416881084442139,-996.0672607421875,-0.3078482449054718,2.1682960987091064,-3.367490768432617
2042,1654,6.862614631652832,7.416881084442139,-996.0672607421875,-0.3078482449054718,2.1682960987091064,-3.367490768432617
2111,1655,6.427775859832764,6.462001800537109,-995.9225463867188,0.15538257360458374,-0.9465247988700867,-3.3168256282806396
2082,1655,6.427775859832764,6.462001800537109,-995.9225463867188,0.15538257360458374,-0.9465247988700867,-3.3168256282806396
2091,1655,6.427775859832764,6.462001800537109,-995.9225463867188,0.15538257360458374,-0.9465247988700867,-3.3168256282806396
2096,1655,6.427775859832764,6.462001800537109,-995.9225463867188,0.15538257360458374,-0.9465247988700867,-3.3168256282806396
2042,1655,6.427775859832764,6.462001800537109,-995.9225463867188,0.15538257360458374,-0.9465247988700867,-3.3168256282806396
2013,1655,6.427775859832764,6.462001800537109,-995.9225463867188,0.15538257360458374,-0.9465247988700867,-3.3168256282806396
2022,1655,6.427775859832764,6.462001800537109,-995.9225463867188,0.15538257360458374,-0.9465247988700867,-3.3168256282806396
2027,1655,6.427775859832764,6.462001800537109,-995.9225463867188,0.15538257360458374,-0.9465247988700867,-3.3168256282806396
2092,1656,7.239253044128418,7.230323791503906,-994.6193237304688,-0.4156784415245056,2.4517862796783447,-0.7816097736358643
2112,1656,7.239253044128418,7.230323791503906,-994.6193237304688,-0.4156784415245056,2.4517862796783447,-0.7816097736358643
2095,1656,7.239253044128418,7.230323791503906,-994.6193237304688,-0.4156784415245056,2.4517862796783447,-0.7816097736358643
2085,1656,7.239253044128418,7.230323791503906,-994.6193237304688,-0.4156784415245056,2.4517862796783447,-0.7816097736358643
2023,1656,7.239253044128418,7.230323791503906,-994.6193237304688,-0.4156784415245056,2.4517862796783447,-0.7816097736358643
2043,1656,7.239253044128418,7.230323791503906,-994.6193237304688,-0.4156784415245056,2.4517862796783447,-0.7816097736358643
2026,1656,7.239253044128418,7.230323791503906,-994.6193237304688,-0.4156784415245056,2.4517862796783447,-0.7816097736358643
2016,1656,7.239253044128418,7.230323791503906,-994.6193237304688,-0.4156784415245056,2.4517862796783447,-0.7816097736358643
2083,1657,6.5737690925598145,6.326845169067383,-994.3823852539062,-0.17671070992946625,1.254770278930664,-2.4721357822418213
2094,1657,6.5737690925598145,6.326845169067383,-994.3823852539062,-0.17671070992946625,1.254770278930664,-2.4721357822418213
2093,1657,6.5737690925598145,6.326845169067383,-994.3823852539062,-0.17671070992946625,1.254770278930664,-2.4721357822418213
2084,1657,6.5737690925598145,6.326845169067383,-994.3823852539062,-0.17671070992946625,1.254770278930664,-2.4721357822418213
2014,1657,6.5737690925598145,6.326845169067383,-994.3823852539062,-0.17671070992946625,1.254770278930664,-2.4721357822418213
2025,1657,6.5737690925598145,6.326845169067383,-994.3823852539062,-0.17671070992946625,1.254770278930664,-2.4721357822418213
2024,1657,6.5737690925598145,6.326845169067383,-994.3823852539062,-0.17671070992946625,1.254770278930664,-2.4721357822418213
2015,1657,6.5737690925598145,6.326845169067383,-994.3823852539062,-0.17671070992946625,1.254770278930664,-2.4721357822418213
2122,1658,11.183858871459961,11.151311874389648,-1003.6473388671875,1.4597270488739014,-9.3949556350708,-8.820439338684082
2135,1658,11.183858871459961,11.151311874389648,-1003.6473388671875,1.4597270488739014,-9.3949556350708,-8.820439338684082
2114,1658,11.183858871459961,11.151311874389648,-1003.6473388671875,1.4597270488739014,-9.3949556350708,-8.820439338684082
2125,1658,11.183858871459961,11.151311874389648,-1003.6473388671875,1.4597270488739014,-9.3949556350708,-8.820439338684082
2053,1658,11.183858871459961,11.151311874389648,-1003.6473388671875,1.4597270488739014,-9.3949556350708,-8.820439338684082
2066,1658,11.183858871459961,11.151311874389648,-1003.6473388671875,1.4597270488739014,-9.3949556350708,-8.820439338684082
2045,1658,11.183858871459961,11.151311874389648,-1003.6473388671875,1.4597270488739014,-9.3949556350708,-8.820439338684082
2056,1658,11.183858871459961,11.151311874389648,-1003.6473388671875,1.4597270488739014,-9.3949556350708,-8.820439338684082
2138,1659,0.4032300114631653,-2.973430633544922,-1006.0009765625,3.155409574508667,-5.467085838317871,1.4370795488357544
2116,1659,0.4032300114631653,-2.973430633544922,-1006.0009765625,3.155409574508667,-5.467085838317871,1.4370795488357544
2102,1659,0.4032300114631653,-2.973430633544922,-1006.0009765625,3.155409574508667,-5.467085838317871,1.4370795488357544
2103,1659,0.4032300114631653,-2.973430633544922,-1006.0009765625,3.155409574508667,-5.467085838317871,1.4370795488357544
2069,1659,0.4032300114631653,-2.973430633544922,-1006.0009765625,3.155409574508667,-5.467085838317871,1.4370795488357544
2047,1659,0.4032300114631653,-2.973430633544922,-1006.0009765625,3.155409574508667,-5.467085838317871,1.4370795488357544
2033,1659,0.4032300114631653,-2.973430633544922,-1006.0009765625,3.155409574508667,-5.467085838317871,1.4370795488357544
2034,1659,0.4032300114631653,-2.973430633544922,-1006.0009765625,3.155409574508667,-5.467085838317871,1.4370795488357544
2126,1660,3.202080488204956,2.5204012393951416,-1013.6400756835938,0.3928763270378113,2.568180561065674,-0.02581539750099182
2123,1660,3.202080488204956,2.5204012393951416,-1013.6400756835938,0.3928763270378113,2.568180561065674,-0.02581539750099182
2122,1660,3.202080488204956,2.5204012393951416,-1013.6400756835938,0.3928763270378113,2.568180561065674,-0.02581539750099182
2125,1660,3.202080488204956,2.5204012393951416,-1013.6400756835938,0.3928763270378113,2.568180561065674,-0.02581539750099182
2057,1660,3.202080488204956,2.5204012393951416,-1013.6400756835938,0.3928763270378113,2.568180561065674,-0.02581539750099182
2054,1660,3.202080488204956,2.5204012393951416,-1013.6400756835938,0.3928763270378113,2.568180561065674,-0.02581539750099182
2053,1660,3.202080488204956,2.5204012393951416,-1013.6400756835938,0.3928763270378113,2.568180561065674,-0.02581539750099182
2056,1660,3.202080488204956,2.5204012393951416,-1013.6400756835938,0.3928763270378113,2.568180561065674,-0.02581539750099182
2117,1661,11.735918998718262,12.360048294067383,-1001.4926147460938,1.4757534265518188,-7.099325656890869,-5.613173007965088
2134,1661,11.735918998718262,12.360048294067383,-1001.4926147460938,1.4757534265518188,-7.099325656890869,-5.613173007965088
2122,1661,11.735918998718262,12.360048294067383,-1001.4926147460938,1.4757534265518188,-7.099325656890869,-5.613173007965088
2123,1661,11.735918998718262,12.360048294067383,-1001.4926147460938,1.4757534265518188,-7.099325656890869,-5.613173007965088
2048,1661,11.735918998718262,12.360048294067383,-1001.4926147460938,1.4757534265518188,-7.099325656890869,-5.613173007965088
2065,1661,11.735918998718262,12.360048294067383,-1001.4926147460938,1.4757534265518188,-7.099325656890869,-5.613173007965088
2053,1661,11.735918998718262,12.360048294067383,-1001.4926147460938,1.4757534265518188,-7.099325656890869,-5.613173007965088
2054,1661,11.735918998718262,12.360048294067383,-1001.4926147460938,1.4757534265518188,-7.099325656890869,-5.613173007965088
2097,1662,0.09778957813978195,0.0827578604221344,-1001.9024658203125,-4.073683738708496,-4.286038398742676,-0.9149910807609558
2110,1662,0.09778957813978195,0.0827578604221344,-1001.9024658203125,-4.073683738708496,-4.286038398742676,-0.9149910807609558
2135,1662,0.09778957813978195,0.0827578604221344,-1001.9024658203125,-4.073683738708496,-4.286038398742676,-0.9149910807609558
2122,1662,0.09778957813978195,0.0827578604221344,-1001.9024658203125,-4.073683738708496,-4.286038398742676,-0.9149910807609558
2028,1662,0.09778957813978195,0.0827578604221344,-1001.9024658203125,-4.073683738708496,-4.286038398742676,-0.9149910807609558
2041,1662,0.09778957813978195,0.0827578604221344,-1001.9024658203125,-4.073683738708496,-4.286038398742676,-0.9149910807609558
2066,1662,0.09778957813978195,0.0827578604221344,-1001.9024658203125,-4.073683738708496,-4.286038398742676,-0.9149910807609558
2053,1662,0.09778957813978195,0.0827578604221344,-1001.9024658203125,-4.073683738708496,-4.286038398742676,-0.9149910807609558
2137,1663,-7.795171737670898,-0.9842484593391418,-1006.6498413085938,5.177292823791504,-3.060382127761841,-2.3152308464050293
2121,1663,-7.795171737670898,-0.9842484593391418,-1006.6498413085938,5.177292823791504,-3.060382127761841,-2.3152308464050293
2101,1663,-7.795171737670898,-0.9842484593391418,-1006.6498413085938,5.177292823791504,-3.060382127761841,-2.3152308464050293
2109,1663,-7.795171737670898,-0.9842484593391418,-1006.6498413085938,5.177292823791504,-3.060382127761841,-2.3152308464050293
2068,1663,-7.795171737670898,-0.9842484593391418,-1006.6498413085938,5.177292823791504,-3.060382127761841,-2.3152308464050293
2052,1663,-7.795171737670898,-0.9842484593391418,-1006.6498413085938,5.177292823791504,-3.060382127761841,-2.3152308464050293
2032,1663,-7.795171737670898,-0.9842484593391418,-1006.6498413085938,5.177292823791504,-3.060382127761841,-2.3152308464050293
2040,1663,-7.795171737670898,-0.9842484593391418,-1006.6498413085938,5.177292823791504,-3.060382127761841,-2.3152308464050293
2131,1664,10.49747085571289,8.925862312316895,-1003.16455078125,2.4624199867248535,8.514713287353516,-0.46695443987846375
2126,1664,10.49747085571289,8.925862312316895,-1003.16455078125,2.4624199867248535,8.514713287353516,-0.46695443987846375
2105,1664,10.49747085571289,8.925862312316895,-1003.16455078125,2.4624199867248535,8.514713287353516,-0.46695443987846375
2119,1664,10.49747085571289,8.925862312316895,-1003.16455078125,2.4624199867248535,8.514713287353516,-0.46695443987846375
2062,1664,10.49747085571289,8.925862312316895,-1003.16455078125,2.4624199867248535,8.514713287353516,-0.46695443987846375
2057,1664,10.49747085571289,8.925862312316895,-1003.16455078125,2.4624199867248535,8.514713287353516,-0.46695443987846375
2036,1664,10.49747085571289,8.925862312316895,-1003.16455078125,2.4624199867248535,8.514713287353516,-0.46695443987846375
2050,1664,10.49747085571289,8.925862312316895,-1003.16455078125,2.4624199867248535,8.514713287353516,-0.46695443987846375
2105,1665,4.225427627563477,0.7615087032318115,-999.1470336914062,-3.730339527130127,0.9445039629936218,8.779706001281738
2120,1665,4.225427627563477,0.7615087032318115,-999.1470336914062,-3.730339527130127,0.9445039629936218,8.779706001281738
2128,1665,4.225427627563477,0.7615087032318115,-999.1470336914062,-3.730339527130127,0.9445039629936218,8.779706001281738
2129,1665,4.225427627563477,0.7615087032318115,-999.1470336914062,-3.730339527130127,0.9445039629936218,8.779706001281738
2036,1665,4.225427627563477,0.7615087032318115,-999.1470336914062,-3.730339527130127,0.9445039629936218,8.779706001281738
2051,1665,4.225427627563477,0.7615087032318115,-999.1470336914062,-3.730339527130127,0.9445039629936218,8.779706001281738
2059,1665,4.225427627563477,0.7615087032318115,-999.1470336914062,-3.730339527130127,0.9445039629936218,8.779706001281738
2060,1665,4.225427627563477,0.7615087032318115,-999.1470336914062,-3.730339527130127,0.9445039629936218,8.779706001281738
2112,1666,-2.8755879402160645,-1.6970715522766113,-996.0048217773438,4.170140743255615,-1.6377402544021606,-2.217642307281494
2093,1666,-2.8755879402160645,-1.6970715522766113,-996.0048217773438,4.170140743255615,-1.6377402544021606,-2.217642307281494
2132,1666,-2.8755879402160645,-1.6970715522766113,-996.0048217773438,4.170140743255615,-1.6377402544021606,-2.217642307281494
2115,1666,-2.8755879402160645,-1.6970715522766113,-996.0048217773438,4.170140743255615,-1.6377402544021606,-2.217642307281494
2043,1666,-2.8755879402160645,-1.6970715522766113,-996.0048217773438,4.170140743255615,-1.6377402544021606,-2.217642307281494
2024,1666,-2.8755879402160645,-1.6970715522766113,-996.0048217773438,4.170140743255615,-1.6377402544021606,-2.217642307281494
2063,1666,-2.8755879402160645,-1.6970715522766113,-996.0048217773438,4.170140743255615,-1.6377402544021606,-2.217642307281494
2046,1666,-2.8755879402160645,-1.6970715522766113,-996.0048217773438,4.170140743255615,-1.6377402544021606,-2.217642307281494
2139,1667,-4.680043697357178,1.1056444644927979,-1004.7130737304688,4.124050617218018,2.5910556316375732,-3.047750949859619
2095,1667,-4.680043697357178,1.1056444644927979,-1004.7130737304688,4.124050617218018,2.5910556316375732,-3.047750949859619
2112,1667,-4.680043697357178,1.1056444644927979,-1004.7130737304688,4.124050617218018,2.5910556316375732,-3.047750949859619
2115,1667,-4.680043697357178,1.1056444644927979,-1004.7130737304688,4.124050617218018,2.5910556316375732,-3.047750949859619
2070,1667,-4.680043697357178,1.1056444644927979,-1004.7130737304688,4.124050617218018,2.5910556316375732,-3.047750949859619
2026,1667,-4.680043697357178,1.1056444644927979,-1004.7130737304688,4.124050617218018,2.5910556316375732,-3.047750949859619
2043,1667,-4.680043697357178,1.1056444644927979,-1004.7130737304688,4.124050617218018,2.5910556316375732,-3.047750949859619
2046,1667,-4.680043697357178,1.1056444644927979,-1004.7130737304688,4.124050617218018,2.5910556316375732,-3.047750949859619
2099,1668,-8.539823532104492,1.8672430515289307,-1001.1366577148438,-1.3478260040283203,-0.32645511627197266,2.0533711910247803
2100,1668,-8.539823532104492,1.8672430515289307,-1001.1366577148438,-1.3478260040283203,-0.32645511627197266,2.0533711910247803
2136,1668,-8.539823532104492,1.8672430515289307,-1001.1366577148438,-1.3478260040283203,-0.32645511627197266,2.0533711910247803
2114,1668,-8.539823532104492,1.8672430515289307,-1001.1366577148438,-1.3478260040283203,-0.32645511627197266,2.0533711910247803
2030,1668,-8.539823532104492,1.8672430515289307,-1001.1366577148438,-1.3478260040283203,-0.32645511627197266,2.0533711910247803
2031,1668,-8.539823532104492,1.8672430515289307,-1001.1366577148438,-1.3478260040283203,-0.32645511627197266,2.0533711910247803
2067,1668,-8.539823532104492,1.8672430515289307,-1001.1366577148438,-1.3478260040283203,-0.32645511627197266,2.0533711910247803
2045,1668,-8.539823532104492,1.8672430515289307,-1001.1366577148438,-1.3478260040283203,-0.32645511627197266,2.0533711910247803
2084,1669,6.9872846603393555,5.919525623321533,-996.7748413085938,-0.03892222046852112,3.435955286026001,-2.1874592304229736
2093,1669,6.9872846603393555,5.919525623321533,-996.7748413085938,-0.03892222046852112,3.435955286026001,-2.1874592304229736
2112,1669,6.9872846603393555,5.919525623321533,-996.7748413085938,-0.03892222046852112,3.435955286026001,-2.1874592304229736
2092,1669,6.9872846603393555,5.919525623321533,-996.7748413085938,-0.03892222046852112,3.435955286026001,-2.1874592304229736
2015,1669,6.9872846603393555,5.919525623321533,-996.7748413085938,-0.03892222046852112,3.435955286026001,-2.1874592304229736
2024,1669,6.9872846603393555,5.919525623321533,-996.7748413085938,-0.03892222046852112,3.435955286026001,-2.1874592304229736
2043,1669,6.9872846603393555,5.919525623321533,-996.7748413085938,-0.03892222046852112,3.435955286026001,-2.1874592304229736
2023,1669,6.9872846603393555,5.919525623321533,-996.7748413085938,-0.03892222046852112,3.435955286026001,-2.1874592304229736
2081,1670,5.7632598876953125,5.017923355102539,-995.2899169921875,-0.2728371024131775,-0.4188062250614166,-2.273678779602051
2127,1670,5.7632598876953125,5.017923355102539,-995.2899169921875,-0.2728371024131775,-0.4188062250614166,-2.273678779602051
2096,1670,5.7632598876953125,5.017923355102539,-995.2899169921875,-0.2728371024131775,-0.4188062250614166,-2.273678779602051
2091,1670,5.7632598876953125,5.017923355102539,-995.2899169921875,-0.2728371024131775,-0.4188062250614166,-2.273678779602051
2012,1670,5.7632598876953125,5.017923355102539,-995.2899169921875,-0.2728371024131775,-0.4188062250614166,-2.273678779602051
2058,1670,5.7632598876953125,5.017923355102539,-995.2899169921875,-0.2728371024131775,-0.4188062250614166,-2.273678779602051
2027,1670,5.7632598876953125,5.017923355102539,-995.2899169921875,-0.2728371024131775,-0.4188062250614166,-2.273678779602051
2022,1670,5.7632598876953125,5.017923355102539,-995.2899169921875,-0.2728371024131775,-0.4188062250614166,-2.273678779602051
2097,1671,5.7649359703063965,7.153717517852783,-996.0682373046875,0.08667035400867462,-2.261800765991211,-2.626622200012207
2080,1671,5.7649359703063965,7.153717517852783,-996.0682373046875,0.08667035400867462,-2.261800765991211,-2.626622200012207
2090,1671,5.7649359703063965,7.153717517852783,-996.0682373046875,0.08667035400867462,-2.261800765991211,-2.626622200012207
2110,1671,5.7649359703063965,7.153717517852783,-996.0682373046875,0.08667035400867462,-2.261800765991211,-2.626622200012207
2028,1671,5.7649359703063965,7.153717517852783,-996.0682373046875,0.08667035400867462,-2.261800765991211,-2.626622200012207
2011,1671,5.7649359703063965,7.153717517852783,-996.0682373046875,0.08667035400867462,-2.261800765991211,-2.626622200012207
2021,1671,5.7649359703063965,7.153717517852783,-996.0682373046875,0.08667035400867462,-2.261800765991211,-2.626622200012207
2041,1671,5.7649359703063965,7.153717517852783,-996.0682373046875,0.08667035400867462,-2.261800765991211,-2.626622200012207
2098,1672,7.066235542297363,6.266551971435547,-996.9624633789062,-0.21108242869377136,3.44681715965271,-1.044548511505127
2086,1672,7.066235542297363,6.266551971435547,-996.9624633789062,-0.21108242869377136,3.44681715965271,-1.044548511505127
2085,1672,7.066235542297363,6.266551971435547,-996.9624633789062,-0.21108242869377136,3.44681715965271,-1.044548511505127
2095,1672,7.066235542297363,6.266551971435547,-996.9624633789062,-0.21108242869377136,3.44681715965271,-1.044548511505127
2029,1672,7.066235542297363,6.266551971435547,-996.9624633789062,-0.21108242869377136,3.44681715965271,-1.044548511505127
2017,1672,7.066235542297363,6.266551971435547,-996.9624633789062,-0.21108242869377136,3.44681715965271,-1.044548511505127
2016,1672,7.066235542297363,6.266551971435547,-996.9624633789062,-0.21108242869377136,3.44681715965271,-1.044548511505127
2026,1672,7.066235542297363,6.266551971435547,-996.9624633789062,-0.21108242869377136,3.44681715965271,-1.044548511505127
2110,1673,7.297598838806152,6.873303413391113,-996.2544555664062,0.5007244944572449,-3.0503125190734863,-1.1358451843261719
2090,1673,7.297598838806152,6.873303413391113,-996.2544555664062,0.5007244944572449,-3.0503125190734863,-1.1358451843261719
2079,1673,7.297598838806152,6.873303413391113,-996.2544555664062,0.5007244944572449,-3.0503125190734863,-1.1358451843261719
2099,1673,7.297598838806152,6.873303413391113,-996.2544555664062,0.5007244944572449,-3.0503125190734863,-1.1358451843261719
2041,1673,7.297598838806152,6.873303413391113,-996.2544555664062,0.5007244944572449,-3.0503125190734863,-1.1358451843261719
2021,1673,7.297598838806152,6.873303413391113,-996.2544555664062,0.5007244944572449,-3.0503125190734863,-1.1358451843261719
2010,1673,7.297598838806152,6.873303413391113,-996.2544555664062,0.5007244944572449,-3.0503125190734863,-1.1358451843261719
2030,1673,7.297598838806152,6.873303413391113,-996.2544555664062,0.5007244944572449,-3.0503125190734863,-1.1358451843261719
2134,1674,1.6051878929138184,-0.23787380754947662,-1000.287841796875,-3.714918375015259,-0.6252793669700623,-4.033188819885254
2127,1674,1.6051878929138184,-0.23787380754947662,-1000.287841796875,-3.714918375015259,-0.6252793669700623,-4.033188819885254
2097,1674,1.6051878929138184,-0.23787380754947662,-1000.287841796875,-3.714918375015259,-0.6252793669700623,-4.033188819885254
2122,1674,1.6051878929138184,-0.23787380754947662,-1000.287841796875,-3.714918375015259,-0.6252793669700623,-4.033188819885254
2065,1674,1.6051878929138184,-0.23787380754947662,-1000.287841796875,-3.714918375015259,-0.6252793669700623,-4.033188819885254
2058,1674,1.6051878929138184,-0.23787380754947662,-1000.287841796875,-3.714918375015259,-0.6252793669700623,-4.033188819885254
2028,1674,1.6051878929138184,-0.23787380754947662,-1000.287841796875,-3.714918375015259,-0.6252793669700623,-4.033188819885254
2053,1674,1.6051878929138184,-0.23787380754947662,-1000.287841796875,-3.714918375015259,-0.6252793669700623,-4.033188819885254
2099,1675,8.719759941101074,7.439495086669922,-995.5044555664062,0.5859033465385437,-3.364935874938965,-1.209755301475525
2079,1675,8.719759941101074,7.439495086669922,-995.5044555664062,0.5859033465385437,-3.364935874938965,-1.209755301475525
2078,1675,8.719759941101074,7.439495086669922,-995.5044555664062,0.5859033465385437,-3.364935874938965,-1.209755301475525
2100,1675,8.719759941101074,7.439495086669922,-995.5044555664062,0.5859033465385437,-3.364935874938965,-1.209755301475525
2030,1675,8.719759941101074,7.439495086669922,-995.5044555664062,0.5859033465385437,-3.364935874938965,-1.209755301475525
2010,1675,8.719759941101074,7.439495086669922,-995.5044555664062,0.5859033465385437,-3.364935874938965,-1.209755301475525
2009,1675,8.719759941101074,7.439495086669922,-995.5044555664062,0.5859033465385437,-3.364935874938965,-1.209755301475525
2031,1675,8.719759941101074,7.439495086669922,-995.5044555664062,0.5859033465385437,-3.364935874938965,-1.209755301475525
2100,1676,8.025225639343262,6.729206085205078,-996.5866088867188,-0.13811545073986053,-3.7522494792938232,1.2577614784240723
2078,1676,8.025225639343262,6.729206085205078,-996.5866088867188,-0.13811545073986053,-3.7522494792938232,1.2577614784240723
2077,1676,8.025225639343262,6.729206085205078,-996.5866088867188,-0.13811545073986053,-3.7522494792938232,1.2577614784240723
2101,1676,8.025225639343262,6.729206085205078,-996.5866088867188,-0.13811545073986053,-3.7522494792938232,1.2577614784240723
2031,1676,8.025225639343262,6.729206085205078,-996.5866088867188,-0.13811545073986053,-3.7522494792938232,1.2577614784240723
2009,1676,8.025225639343262,6.729206085205078,-996.5866088867188,-0.13811545073986053,-3.7522494792938232,1.2577614784240723
2008,1676,8.025225639343262,6.729206085205078,-996.5866088867188,-0.13811545073986053,-3.7522494792938232,1.2577614784240723
2032,1676,8.025225639343262,6.729206085205078,-996.5866088867188,-0.13811545073986053,-3.7522494792938232,1.2577614784240723
2131,1677,10.951607704162598,9.55813217163086,-1009.016357421875,1.7474546432495117,7.443544864654541,7.527356147766113
2119,1677,10.951607704162598,9.55813217163086,-1009.016357421875,1.7474546432495117,7.443544864654541,7.527356147766113
2130,1677,10.951607704162598,9.55813217163086,-1009.016357421875,1.7474546432495117,7.443544864654541,7.527356147766113
2124,1677,10.951607704162598,9.55813217163086,-1009.016357421875,1.7474546432495117,7.443544864654541,7.527356147766113
2062,1677,10.951607704162598,9.55813217163086,-1009.016357421875,1.7474546432495117,7.443544864654541,7.527356147766113
2050,1677,10.951607704162598,9.55813217163086,-1009.016357421875,1.7474546432495117,7.443544864654541,7.527356147766113
2061,1677,10.951607704162598,9.55813217163086,-1009.016357421875,1.7474546432495117,7.443544864654541,7.527356147766113
2055,1677,10.951607704162598,9.55813217163086,-1009.016357421875,1.7474546432495117,7.443544864654541,7.527356147766113
2086,1678,6.282565116882324,6.573267459869385,-995.0967407226562,-0.14428648352622986,2.4162051677703857,0.6736763715744019
2098,1678,6.282565116882324,6.573267459869385,-995.0967407226562,-0.14428648352622986,2.4162051677703857,0.6736763715744019
2106,1678,6.282565116882324,6.573267459869385,-995.0967407226562,-0.14428648352622986,2.4162051677703857,0.6736763715744019
2071,1678,6.282565116882324,6.573267459869385,-995.0967407226562,-0.14428648352622986,2.4162051677703857,0.6736763715744019
2017,1678,6.282565116882324,6.573267459869385,-995.0967407226562,-0.14428648352622986,2.4162051677703857,0.6736763715744019
2029,1678,6.282565116882324,6.573267459869385,-995.0967407226562,-0.14428648352622986,2.4162051677703857,0.6736763715744019
2037,1678,6.282565116882324,6.573267459869385,-995.0967407226562,-0.14428648352622986,2.4162051677703857,0.6736763715744019
2002,1678,6.282565116882324,6.573267459869385,-995.0967407226562,-0.14428648352622986,2.4162051677703857,0.6736763715744019
2101,1679,7.882989883422852,7.545678615570068,-994.5587158203125,-0.555790901184082,-2.4506711959838867,1.2531417608261108
2077,1679,7.882989883422852,7.545678615570068,-994.5587158203125,-0.555790901184082,-2.4506711959838867,1.2531417608261108
2089,1679,7.882989883422852,7.545678615570068,-994.5587158203125,-0.555790901184082,-2.4506711959838867,1.2531417608261108
2109,1679,7.882989883422852,7.545678615570068,-994.5587158203125,-0.555790901184082,-2.4506711959838867,1.2531417608261108
2032,1679,7.882989883422852,7.545678615570068,-994.5587158203125,-0.555790901184082,-2.4506711959838867,1.2531417608261108
2008,1679,7.882989883422852,7.545678615570068,-994.5587158203125,-0.555790901184082,-2.4506711959838867,1.2531417608261108
2020,1679,7.882989883422852,7.545678615570068,-994.5587158203125,-0.555790901184082,-2.4506711959838867,1.2531417608261108
2040,1679,7.882989883422852,7.545678615570068,-994.5587158203125,-0.555790901184082,-2.4506711959838867,1.2531417608261108
2109,1680,6.281947135925293,6.951817512512207,-997.2174682617188,-0.535897970199585,-2.825648784637451,2.7035908699035645
2089,1680,6.281947135925293,6.951817512512207,-997.2174682617188,-0.535897970199585,-2.825648784637451,2.7035908699035645
2076,1680,6.281947135925293,6.951817512512207,-997.2174682617188,-0.535897970199585,-2.825648784637451,2.7035908699035645
2102,1680,6.281947135925293,6.951817512512207,-997.2174682617188,-0.535897970199585,-2.825648784637451,2.7035908699035645
2040,1680,6.281947135925293,6.951817512512207,-997.2174682617188,-0.535897970199585,-2.825648784637451,2.7035908699035645
2020,1680,6.281947135925293,6.951817512512207,-997.2174682617188,-0.535897970199585,-2.825648784637451,2.7035908699035645
2007,1680,6.281947135925293,6.951817512512207,-997.2174682617188,-0.535897970199585,-2.825648784637451,2.7035908699035645
2033,1680,6.281947135925293,6.951817512512207,-997.2174682617188,-0.535897970199585,-2.825648784637451,2.7035908699035645
2102,1681,6.400818347930908,6.137015342712402,-994.9767456054688,0.3898324966430664,-0.9565082788467407,2.6246581077575684
2076,1681,6.400818347930908,6.137015342712402,-994.9767456054688,0.3898324966430664,-0.9565082788467407,2.6246581077575684
2075,1681,6.400818347930908,6.137015342712402,-994.9767456054688,0.3898324966430664,-0.9565082788467407,2.6246581077575684
2103,1681,6.400818347930908,6.137015342712402,-994.9767456054688,0.3898324966430664,-0.9565082788467407,2.6246581077575684
2033,1681,6.400818347930908,6.137015342712402,-994.9767456054688,0.3898324966430664,-0.9565082788467407,2.6246581077575684
2007,1681,6.400818347930908,6.137015342712402,-994.9767456054688,0.3898324966430664,-0.9565082788467407,2.6246581077575684
2006,1681,6.400818347930908,6.137015342712402,-994.9767456054688,0.3898324966430664,-0.9565082788467407,2.6246581077575684
2034,1681,6.400818347930908,6.137015342712402,-994.9767456054688,0.3898324966430664,-0.9565082788467407,2.6246581077575684
2103,1682,5.645627021789551,4.879978656768799,-996.4093627929688,-0.17050722241401672,-1.2384233474731445,2.57721209526062
2075,1682,5.645627021789551,4.879978656768799,-996.4093627929688,-0.17050722241401672,-1.2384233474731445,2.57721209526062
2088,1682,5.645627021789551,4.879978656768799,-996.4093627929688,-0.17050722241401672,-1.2384233474731445,2.57721209526062
2108,1682,5.645627021789551,4.879978656768799,-996.4093627929688,-0.17050722241401672,-1.2384233474731445,2.57721209526062
2034,1682,5.645627021789551,4.879978656768799,-996.4093627929688,-0.17050722241401672,-1.2384233474731445,2.57721209526062
2006,1682,5.645627021789551,4.879978656768799,-996.4093627929688,-0.17050722241401672,-1.2384233474731445,2.57721209526062
2019,1682,5.645627021789551,4.879978656768799,-996.4093627929688,-0.17050722241401672,-1.2384233474731445,2.57721209526062
2039,1682,5.645627021789551,4.879978656768799,-996.4093627929688,-0.17050722241401672,-1.2384233474731445,2.57721209526062
2108,1683,7.538650989532471,10.520273208618164,-995.0726318359375,-0.4593975245952606,-0.30740106105804443,3.389930248260498
2088,1683,7.538650989532471,10.520273208618164,-995.0726318359375,-0.4593975245952606,-0.30740106105804443,3.389930248260498
2074,1683,7.538650989532471,10.520273208618164,-995.0726318359375,-0.4593975245952606,-0.30740106105804443,3.389930248260498
2104,1683,7.538650989532471,10.520273208618164,-995.0726318359375,-0.4593975245952606,-0.30740106105804443,3.389930248260498
2039,1683,7.538650989532471,10.520273208618164,-995.0726318359375,-0.4593975245952606,-0.30740106105804443,3.389930248260498
2019,1683,7.538650989532471,10.520273208618164,-995.0726318359375,-0.4593975245952606,-0.30740106105804443,3.389930248260498
2005,1683,7.538650989532471,10.520273208618164,-995.0726318359375,-0.4593975245952606,-0.30740106105804443,3.389930248260498
2035,1683,7.538650989532471,10.520273208618164,-995.0726318359375,-0.4593975245952606,-0.30740106105804443,3.389930248260498
2128,1684,4.215663433074951,3.4995689392089844,-995.4340209960938,-0.881408154964447,1.5280389785766602,1.5381135940551758
2073,1684,4.215663433074951,3.4995689392089844,-995.4340209960938,-0.881408154964447,1.5280389785766602,1.5381135940551758
2072,1684,4.215663433074951,3.4995689392089844,-995.4340209960938,-0.881408154964447,1.5280389785766602,1.5381135940551758
2129,1684,4.215663433074951,3.4995689392089844,-995.4340209960938,-0.881408154964447,1.5280389785766602,1.5381135940551758
2059,1684,4.215663433074951,3.4995689392089844,-995.4340209960938,-0.881408154964447,1.5280389785766602,1.5381135940551758
2004,1684,4.215663433074951,3.4995689392089844,-995.4340209960938,-0.881408154964447,1.5280389785766602,1.5381135940551758
2003,1684,4.215663433074951,3.4995689392089844,-995.4340209960938,-0.881408154964447,1.5280389785766602,1.5381135940551758
2060,1684,4.215663433074951,3.4995689392089844,-995.4340209960938,-0.881408154964447,1.5280389785766602,1.5381135940551758
2107,1685,5.993999004364014,5.243934631347656,-996.8401489257812,-0.3363756537437439,3.308908462524414,0.7766436338424683
2087,1685,5.993999004364014,5.243934631347656,-996.8401489257812,-0.3363756537437439,3.308908462524414,0.7766436338424683
2071,1685,5.993999004364014,5.243934631347656,-996.8401489257812,-0.3363756537437439,3.308908462524414,0.7766436338424683
2106,1685,5.993999004364014,5.243934631347656,-996.8401489257812,-0.3363756537437439,3.308908462524414,0.7766436338424683
2038,1685,5.993999004364014,5.243934631347656,-996.8401489257812,-0.3363756537437439,3.308908462524414,0.7766436338424683
2018,1685,5.993999004364014,5.243934631347656,-996.8401489257812,-0.3363756537437439,3.308908462524414,0.7766436338424683
2002,1685,5.993999004364014,5.243934631347656,-996.8401489257812,-0.3363756537437439,3.308908462524414,0.7766436338424683
2037,1685,5.993999004364014,5.243934631347656,-996.8401489257812,-0.3363756537437439,3.308908462524414,0.7766436338424683
2130,1686,-9.937188148498535,1.3330234289169312,-1008.0308837890625,-2.156714916229248,3.265340805053711,-1.5177870988845825
2106,1686,-9.937188148498535,1.3330234289169312,-1008.0308837890625,-2.156714916229248,3.265340805053711,-1.5177870988845825
2098,1686,-9.937188148498535,1.3330234289169312,-1008.0308837890625,-2.156714916229248,3.265340805053711,-1.5177870988845825
2113,1686,-9.937188148498535,1.3330234289169312,-1008.0308837890625,-2.156714916229248,3.265340805053711,-1.5177870988845825
2061,1686,-9.937188148498535,1.3330234289169312,-1008.0308837890625,-2.156714916229248,3.265340805053711,-1.5177870988845825
2037,1686,-9.937188148498535,1.3330234289169312,-1008.0308837890625,-2.156714916229248,3.265340805053711,-1.5177870988845825
2029,1686,-9.937188148498535,1.3330234289169312,-1008.0308837890625,-2.156714916229248,3.265340805053711,-1.5177870988845825
2044,1686,-9.937188148498535,1.3330234289169312,-1008.0308837890625,-2.156714916229248,3.265340805053711,-1.5177870988845825
2129,1687,-2.6691200733184814,-1.5720012187957764,-1007.0866088867188,-3.4859137535095215,4.470089912414551,1.1494368314743042
2107,1687,-2.6691200733184814,-1.5720012187957764,-1007.0866088867188,-3.4859137535095215,4.470089912414551,1.1494368314743042
2119,1687,-2.6691200733184814,-1.5720012187957764,-1007.0866088867188,-3.4859137535095215,4.470089912414551,1.1494368314743042
2105,1687,-2.6691200733184814,-1.5720012187957764,-1007.0866088867188,-3.4859137535095215,4.470089912414551,1.1494368314743042
2060,1687,-2.6691200733184814,-1.5720012187957764,-1007.0866088867188,-3.4859137535095215,4.470089912414551,1.1494368314743042
2038,1687,-2.6691200733184814,-1.5720012187957764,-1007.0866088867188,-3.4859137535095215,4.470089912414551,1.1494368314743042
2050,1687,-2.6691200733184814,-1.5720012187957764,-1007.0866088867188,-3.4859137535095215,4.470089912414551,1.1494368314743042
2036,1687,-2.6691200733184814,-1.5720012187957764,-1007.0866088867188,-3.4859137535095215,4.470089912414551,1.1494368314743042
2104,1688,7.275132656097412,9.1521577835083,-996.1730346679688,0.628388524055481,1.2981127500534058,3.7498202323913574
2074,1688,7.275132656097412,9.1521577835083,-996.1730346679688,0.628388524055481,1.2981127500534058,3.7498202323913574
2073,1688,7.275132656097412,9.1521577835083,-996.1730346679688,0.628388524055481,1.2981127500534058,3.7498202323913574
2128,1688,7.275132656097412,9.1521577835083,-996.1730346679688,0.628388524055481,1.2981127500534058,3.7498202323913574
2035,1688,7.275132656097412,9.1521577835083,-996.1730346679688,0.628388524055481,1.2981127500534058,3.7498202323913574
2005,1688,7.275132656097412,9.1521577835083,-996.1730346679688,0.628388524055481,1.2981127500534058,3.7498202323913574
2004,1688,7.275132656097412,9.1521577835083,-996.1730346679688,0.628388524055481,1.2981127500534058,3.7498202323913574
2059,1688,7.275132656097412,9.1521577835083,-996.1730346679688,0.628388524055481,1.2981127500534058,3.7498202323913574
2113,1689,-7.200038433074951,2.0749425888061523,-994.2962036132812,2.5302088260650635,0.8637811541557312,2.0181100368499756
2098,1689,-7.200038433074951,2.0749425888061523,-994.2962036132812,2.5302088260650635,0.8637811541557312,2.0181100368499756
2095,1689,-7.200038433074951,2.0749425888061523,-994.2962036132812,2.5302088260650635,0.8637811541557312,2.0181100368499756
2139,1689,-7.200038433074951,2.0749425888061523,-994.2962036132812,2.5302088260650635,0.8637811541557312,2.0181100368499756
2044,1689,-7.200038433074951,2.0749425888061523,-994.2962036132812,2.5302088260650635,0.8637811541557312,2.0181100368499756
2029,1689,-7.200038433074951,2.0749425888061523,-994.2962036132812,2.5302088260650635,0.8637811541557312,2.0181100368499756
2026,1689,-7.200038433074951,2.0749425888061523,-994.2962036132812,2.5302088260650635,0.8637811541557312,2.0181100368499756
2070,1689,-7.200038433074951,2.0749425888061523,-994.2962036132812,2.5302088260650635,0.8637811541557312,2.0181100368499756
2124,1690,7.144355773925781,6.521145343780518,-1009.438232421875,-1.1180992126464844,5.654407024383545,-1.5336500406265259
2139,1690,7.144355773925781,6.521145343780518,-1009.438232421875,-1.1180992126464844,5.654407024383545,-1.5336500406265259
2115,1690,7.144355773925781,6.521145343780518,-1009.438232421875,-1.1180992126464844,5.654407024383545,-1.5336500406265259
2123,1690,7.144355773925781,6.521145343780518,-1009.438232421875,-1.1180992126464844,5.654407024383545,-1.5336500406265259
2055,1690,7.144355773925781,6.521145343780518,-1009.438232421875,-1.1180992126464844,5.654407024383545,-1.5336500406265259
2070,1690,7.144355773925781,6.521145343780518,-1009.438232421875,-1.1180992126464844,5.654407024383545,-1.5336500406265259
2046,1690,7.144355773925781,6.521145343780518,-1009.438232421875,-1.1180992126464844,5.654407024383545,-1.5336500406265259
2054,1690,7.144355773925781,6.521145343780518,-1009.438232421875,-1.1180992126464844,5.654407024383545,-1.5336500406265259
2094,1691,1.4713104963302612,-7.539710521697998,-998.715087890625,2.285367727279663,-3.1036508083343506,-0.7437057495117188
2111,1691,1.4713104963302612,-7.539710521697998,-998.715087890625,2.285367727279663,-3.1036508083343506,-0.7437057495117188
2133,1691,1.4713104963302612,-7.539710521697998,-998.715087890625,2.285367727279663,-3.1036508083343506,-0.7437057495117188
2118,1691,1.4713104963302612,-7.539710521697998,-998.715087890625,2.285367727279663,-3.1036508083343506,-0.7437057495117188
2025,1691,1.4713104963302612,-7.539710521697998,-998.715087890625,2.285367727279663,-3.1036508083343506,-0.7437057495117188
2042,1691,1.4713104963302612,-7.539710521697998,-998.715087890625,2.285367727279663,-3.1036508083343506,-0.7437057495117188
2064,1691,1.4713104963302612,-7.539710521697998,-998.715087890625,2.285367727279663,-3.1036508083343506,-0.7437057495117188
2049,1691,1.4713104963302612,-7.539710521697998,-998.715087890625,2.285367727279663,-3.1036508083343506,-0.7437057495117188
2118,1692,8.987970352172852,11.482671737670898,-1003.2777709960938,0.20010706782341003,2.7411201000213623,-12.584857940673828
2133,1692,8.987970352172852,11.482671737670898,-1003.2777709960938,0.20010706782341003,2.7411201000213623,-12.584857940673828
2117,1692,8.987970352172852,11.482671737670898,-1003.2777709960938,0.20010706782341003,2.7411201000213623,-12.584857940673828
2123,1692,8.987970352172852,11.482671737670898,-1003.2777709960938,0.20010706782341003,2.7411201000213623,-12.584857940673828
2049,1692,8.987970352172852,11.482671737670898,-1003.2777709960938,0.20010706782341003,2.7411201000213623,-12.584857940673828
2064,1692,8.987970352172852,11.482671737670898,-1003.2777709960938,0.20010706782341003,2.7411201000213623,-12.584857940673828
2048,1692,8.987970352172852,11.482671737670898,-1003.2777709960938,0.20010706782341003,2.7411201000213623,-12.584857940673828
2054,1692,8.987970352172852,11.482671737670898,-1003.2777709960938,0.20010706782341003,2.7411201000213623,-12.584857940673828
2120,1693,-0.6873798370361328,-12.084871292114258,-1001.2046508789062,-1.331167459487915,-0.9316452145576477,-4.4375433921813965
2108,1693,-0.6873798370361328,-12.084871292114258,-1001.2046508789062,-1.331167459487915,-0.9316452145576477,-4.4375433921813965
2104,1693,-0.6873798370361328,-12.084871292114258,-1001.2046508789062,-1.331167459487915,-0.9316452145576477,-4.4375433921813965
2128,1693,-0.6873798370361328,-12.084871292114258,-1001.2046508789062,-1.331167459487915,-0.9316452145576477,-4.4375433921813965
2051,1693,-0.6873798370361328,-12.084871292114258,-1001.2046508789062,-1.331167459487915,-0.9316452145576477,-4.4375433921813965
2039,1693,-0.6873798370361328,-12.084871292114258,-1001.2046508789062,-1.331167459487915,-0.9316452145576477,-4.4375433921813965
2035,1693,-0.6873798370361328,-12.084871292114258,-1001.2046508789062,-1.331167459487915,-0.9316452145576477,-4.4375433921813965
2059,1693,-0.6873798370361328,-12.084871292114258,-1001.2046508789062,-1.331167459487915,-0.9316452145576477,-4.4375433921813965
2118,1694,11.55058479309082,11.404618263244629,-996.9312744140625,-1.1030107736587524,11.407934188842773,-7.181682586669922
2123,1694,11.55058479309082,11.404618263244629,-996.9312744140625,-1.1030107736587524,11.407934188842773,-7.181682586669922
2115,1694,11.55058479309082,11.404618263244629,-996.9312744140625,-1.1030107736587524,11.407934188842773,-7.181682586669922
2132,1694,11.55058479309082,11.404618263244629,-996.9312744140625,-1.1030107736587524,11.407934188842773,-7.181682586669922
2049,1694,11.55058479309082,11.404618263244629,-996.9312744140625,-1.1030107736587524,11.407934188842773,-7.181682586669922
2054,1694,11.55058479309082,11.404618263244629,-996.9312744140625,-1.1030107736587524,11.407934188842773,-7.181682586669922
2046,1694,11.55058479309082,11.404618263244629,-996.9312744140625,-1.1030107736587524,11.407934188842773,-7.181682586669922
2063,1694,11.55058479309082,11.404618263244629,-996.9312744140625,-1.1030107736587524,11.407934188842773,-7.181682586669922
2096,1695,1.1679706573486328,-6.346322059631348,-1004.27490234375,-3.040555000305176,-0.16272024810314178,-4.771106243133545
2127,1695,1.1679706573486328,-6.346322059631348,-1004.27490234375,-3.040555000305176,-0.16272024810314178,-4.771106243133545
2134,1695,1.1679706573486328,-6.346322059631348,-1004.27490234375,-3.040555000305176,-0.16272024810314178,-4.771106243133545
2117,1695,1.1679706573486328,-6.346322059631348,-1004.27490234375,-3.040555000305176,-0.16272024810314178,-4.771106243133545
2027,1695,1.1679706573486328,-6.346322059631348,-1004.27490234375,-3.040555000305176,-0.16272024810314178,-4.771106243133545
2058,1695,1.1679706573486328,-6.346322059631348,-1004.27490234375,-3.040555000305176,-0.16272024810314178,-4.771106243133545
2065,1695,1.1679706573486328,-6.346322059631348,-1004.27490234375,-3.040555000305176,-0.16272024810314178,-4.771106243133545
2048,1695,1.1679706573486328,-6.346322059631348,-1004.27490234375,-3.040555000305176,-0.16272024810314178,-4.771106243133545
2138,1696,11.46926212310791,13.302724838256836,-1003.4654541015625,-0.015241175889968872,-0.9499503374099731,9.278731346130371
2120,1696,11.46926212310791,13.302724838256836,-1003.4654541015625,-0.015241175889968872,-0.9499503374099731,9.278731346130371
2105,1696,11.46926212310791,13.302724838256836,-1003.4654541015625,-0.015241175889968872,-0.9499503374099731,9.278731346130371
2126,1696,11.46926212310791,13.302724838256836,-1003.4654541015625,-0.015241175889968872,-0.9499503374099731,9.278731346130371
2069,1696,11.46926212310791,13.302724838256836,-1003.4654541015625,-0.015241175889968872,-0.9499503374099731,9.278731346130371
2051,1696,11.46926212310791,13.302724838256836,-1003.4654541015625,-0.015241175889968872,-0.9499503374099731,9.278731346130371
2036,1696,11.46926212310791,13.302724838256836,-1003.4654541015625,-0.015241175889968872,-0.9499503374099731,9.278731346130371
2057,1696,11.46926212310791,13.302724838256836,-1003.4654541015625,-0.015241175889968872,-0.9499503374099731,9.278731346130371
2114,1697,9.790968894958496,9.280332565307617,-1001.9324951171875,0.5546082854270935,-15.048858642578125,-0.24008849263191223
2136,1697,9.790968894958496,9.280332565307617,-1001.9324951171875,0.5546082854270935,-15.048858642578125,-0.24008849263191223
2121,1697,9.790968894958496,9.280332565307617,-1001.9324951171875,0.5546082854270935,-15.048858642578125,-0.24008849263191223
2125,1697,9.790968894958496,9.280332565307617,-1001.9324951171875,0.5546082854270935,-15.048858642578125,-0.24008849263191223
2045,1697,9.790968894958496,9.280332565307617,-1001.9324951171875,0.5546082854270935,-15.048858642578125,-0.24008849263191223
2067,1697,9.790968894958496,9.280332565307617,-1001.9324951171875,0.5546082854270935,-15.048858642578125,-0.24008849263191223
2052,1697,9.790968894958496,9.280332565307617,-1001.9324951171875,0.5546082854270935,-15.048858642578125,-0.24008849263191223
2056,1697,9.790968894958496,9.280332565307617,-1001.9324951171875,0.5546082854270935,-15.048858642578125,-0.24008849263191223
2137,1698,-0.6703485250473022,-0.38157179951667786,-993.2403564453125,4.269430637359619,0.28538355231285095,1.3158165216445923
2109,1698,-0.6703485250473022,-0.38157179951667786,-993.2403564453125,4.269430637359619,0.28538355231285095,1.3158165216445923
2102,1698,-0.6703485250473022,-0.38157179951667786,-993.2403564453125,4.269430637359619,0.28538355231285095,1.3158165216445923
2116,1698,-0.6703485250473022,-0.38157179951667786,-993.2403564453125,4.269430637359619,0.28538355231285095,1.3158165216445923
2068,1698,-0.6703485250473022,-0.38157179951667786,-993.2403564453125,4.269430637359619,0.28538355231285095,1.3158165216445923
2040,1698,-0.6703485250473022,-0.38157179951667786,-993.2403564453125,4.269430637359619,0.28538355231285095,1.3158165216445923
2033,1698,-0.6703485250473022,-0.38157179951667786,-993.2403564453125,4.269430637359619,0.28538355231285095,1.3158165216445923
2047,1698,-0.6703485250473022,-0.38157179951667786,-993.2403564453125,4.269430637359619,0.28538355231285095,1.3158165216445923
2126,1699,5.918510437011719,7.046884059906006,-1008.3741455078125,-1.7070386409759521,-2.9829068183898926,2.1009674072265625
2125,1699,5.918510437011719,7.046884059906006,-1008.3741455078125,-1.7070386409759521,-2.9829068183898926,2.1009674072265625
2116,1699,5.918510437011719,7.046884059906006,-1008.3741455078125,-1.7070386409759521,-2.9829068183898926,2.1009674072265625
2138,1699,5.918510437011719,7.046884059906006,-1008.3741455078125,-1.7070386409759521,-2.9829068183898926,2.1009674072265625
2057,1699,5.918510437011719,7.046884059906006,-1008.3741455078125,-1.7070386409759521,-2.9829068183898926,2.1009674072265625
2056,1699,5.918510437011719,7.046884059906006,-1008.3741455078125,-1.7070386409759521,-2.9829068183898926,2.1009674072265625
2047,1699,5.918510437011719,7.046884059906006,-1008.3741455078125,-1.7070386409759521,-2.9829068183898926,2.1009674072265625
2069,1699,5.918510437011719,7.046884059906006,-1008.3741455078125,-1.7070386409759521,-2.9829068183898926,2.1009674072265625
2126,1700,0.5537756085395813,0.7648779153823853,-1014.28515625,-0.3184683620929718,-6.43417501449585,-1.0386019945144653
2131,1700,0.5537756085395813,0.7648779153823853,-1014.28515625,-0.3184683620929718,-6.43417501449585,-1.0386019945144653
2124,1700,0.5537756085395813,0.7648779153823853,-1014.28515625,-0.3184683620929718,-6.43417501449585,-1.0386019945144653
2123,1700,0.5537756085395813,0.7648779153823853,-1014.28515625,-0.3184683620929718,-6.43417501449585,-1.0386019945144653
2057,1700,0.5537756085395813,0.7648779153823853,-1014.28515625,-0.3184683620929718,-6.43417501449585,-1.0386019945144653
2062,1700,0.5537756085395813,0.7648779153823853,-1014.28515625,-0.3184683620929718,-6.43417501449585,-1.0386019945144653
2055,1700,0.5537756085395813,0.7648779153823853,-1014.28515625,-0.3184683620929718,-6.43417501449585,-1.0386019945144653
2054,1700,0.5537756085395813,0.7648779153823853,-1014.28515625,-0.3184683620929718,-6.43417501449585,-1.0386019945144653
2116,1701,10.984318733215332,11.446784019470215,-999.1234130859375,0.2265411913394928,-8.110429763793945,12.12016487121582
2125,1701,10.984318733215332,11.446784019470215,-999.1234130859375,0.2265411913394928,-8.110429763793945,12.12016487121582
2121,1701,10.984318733215332,11.446784019470215,-999.1234130859375,0.2265411913394928,-8.110429763793945,12.12016487121582
2137,1701,10.984318733215332,11.446784019470215,-999.1234130859375,0.2265411913394928,-8.110429763793945,12.12016487121582
2047,1701,10.984318733215332,11.446784019470215,-999.1234130859375,0.2265411913394928,-8.110429763793945,12.12016487121582
2056,1701,10.984318733215332,11.446784019470215,-999.1234130859375,0.2265411913394928,-8.110429763793945,12.12016487121582
2052,1701,10.984318733215332,11.446784019470215,-999.1234130859375,0.2265411913394928,-8.110429763793945,12.12016487121582
2068,1701,10.984318733215332,11.446784019470215,-999.1234130859375,0.2265411913394928,-8.110429763793945,12.12016487121582
2127,1702,6.210391998291016,4.759994983673096,-996.5037841796875,-0.1040969267487526,-2.260563373565674,-2.76357364654541
2081,1702,6.210391998291016,4.759994983673096,-996.5037841796875,-0.1040969267487526,-2.260563373565674,-2.76357364654541
2080,1702,6.210391998291016,4.759994983673096,-996.5037841796875,-0.1040969267487526,-2.260563373565674,-2.76357364654541
2097,1702,6.210391998291016,4.759994983673096,-996.5037841796875,-0.1040969267487526,-2.260563373565674,-2.76357364654541
2058,1702,6.210391998291016,4.759994983673096,-996.5037841796875,-0.1040969267487526,-2.260563373565674,-2.76357364654541
2012,1702,6.210391998291016,4.759994983673096,-996.5037841796875,-0.1040969267487526,-2.260563373565674,-2.76357364654541
2011,1702,6.210391998291016,4.759994983673096,-996.5037841796875,-0.1040969267487526,-2.260563373565674,-2.76357364654541
2028,1702,6.210391998291016,4.759994983673096,-996.5037841796875,-0.1040969267487526,-2.260563373565674,-2.76357364654541
2129,1703,5.304159164428711,4.651762008666992,-995.6676635742188,-1.057377815246582,1.6996623277664185,2.237656831741333
2072,1703,5.304159164428711,4.651762008666992,-995.6676635742188,-1.057377815246582,1.6996623277664185,2.237656831741333
2087,1703,5.304159164428711,4.651762008666992,-995.6676635742188,-1.057377815246582,1.6996623277664185,2.237656831741333
2107,1703,5.304159164428711,4.651762008666992,-995.6676635742188,-1.057377815246582,1.6996623277664185,2.237656831741333
2060,1703,5.304159164428711,4.651762008666992,-995.6676635742188,-1.057377815246582,1.6996623277664185,2.237656831741333
2003,1703,5.304159164428711,4.651762008666992,-995.6676635742188,-1.057377815246582,1.6996623277664185,2.237656831741333
2018,1703,5.304159164428711,4.651762008666992,-995.6676635742188,-1.057377815246582,1.6996623277664185,2.237656831741333
2038,1703,5.304159164428711,4.651762008666992,-995.6676635742188,-1.057377815246582,1.6996623277664185,2.237656831741333
2106,1704,-2.6856889724731445,3.6047046184539795,-995.194580078125,-3.2792327404022217,1.3804194927215576,4.496214389801025
2130,1704,-2.6856889724731445,3.6047046184539795,-995.194580078125,-3.2792327404022217,1.3804194927215576,4.496214389801025
2119,1704,-2.6856889724731445,3.6047046184539795,-995.194580078125,-3.2792327404022217,1.3804194927215576,4.496214389801025
2107,1704,-2.6856889724731445,3.6047046184539795,-995.194580078125,-3.2792327404022217,1.3804194927215576,4.496214389801025
2037,1704,-2.6856889724731445,3.6047046184539795,-995.194580078125,-3.2792327404022217,1.3804194927215576,4.496214389801025
2061,1704,-2.6856889724731445,3.6047046184539795,-995.194580078125,-3.2792327404022217,1.3804194927215576,4.496214389801025
2050,1704,-2.6856889724731445,3.6047046184539795,-995.194580078125,-3.2792327404022217,1.3804194927215576,4.496214389801025
2038,1704,-2.6856889724731445,3.6047046184539795,-995.194580078125,-3.2792327404022217,1.3804194927215576,4.496214389801025
2130,1705,15.314151763916016,13.83660888671875,-994.8298950195312,-0.2296241670846939,16.804996490478516,-5.049436092376709
2113,1705,15.314151763916016,13.83660888671875,-994.8298950195312,-0.2296241670846939,16.804996490478516,-5.049436092376709
2139,1705,15.314151763916016,13.83660888671875,-994.8298950195312,-0.2296241670846939,16.804996490478516,-5.049436092376709
2124,1705,15.314151763916016,13.83660888671875,-994.8298950195312,-0.2296241670846939,16.804996490478516,-5.049436092376709
2061,1705,15.314151763916016,13.83660888671875,-994.8298950195312,-0.2296241670846939,16.804996490478516,-5.049436092376709
2044,1705,15.314151763916016,13.83660888671875,-994.8298950195312,-0.2296241670846939,16.804996490478516,-5.049436092376709
2070,1705,15.314151763916016,13.83660888671875,-994.8298950195312,-0.2296241670846939,16.804996490478516,-5.049436092376709
2055,1705,15.314151763916016,13.83660888671875,-994.8298950195312,-0.2296241670846939,16.804996490478516,-5.049436092376709
2132,1706,-1.6528761386871338,-5.259561538696289,-1005.1968383789062,5.4267449378967285,0.8665140271186829,-1.3166567087173462
2093,1706,-1.6528761386871338,-5.259561538696289,-1005.1968383789062,5.4267449378967285,0.8665140271186829,-1.3166567087173462
2094,1706,-1.6528761386871338,-5.259561538696289,-1005.1968383789062,5.4267449378967285,0.8665140271186829,-1.3166567087173462
2118,1706,-1.6528761386871338,-5.259561538696289,-1005.1968383789062,5.4267449378967285,0.8665140271186829,-1.3166567087173462
2063,1706,-1.6528761386871338,-5.259561538696289,-1005.1968383789062,5.4267449378967285,0.8665140271186829,-1.3166567087173462
2024,1706,-1.6528761386871338,-5.259561538696289,-1005.1968383789062,5.4267449378967285,0.8665140271186829,-1.3166567087173462
2025,1706,-1.6528761386871338,-5.259561538696289,-1005.1968383789062,5.4267449378967285,0.8665140271186829,-1.3166567087173462
2049,1706,-1.6528761386871338,-5.259561538696289,-1005.1968383789062,5.4267449378967285,0.8665140271186829,-1.3166567087173462
2133,1707,2.604299545288086,-6.8241496086120605,-999.10107421875,0.17699669301509857,2.744666814804077,-1.2406905889511108
2111,1707,2.604299545288086,-6.8241496086120605,-999.10107421875,0.17699669301509857,2.744666814804077,-1.2406905889511108
2096,1707,2.604299545288086,-6.8241496086120605,-999.10107421875,0.17699669301509857,2.744666814804077,-1.2406905889511108
2117,1707,2.604299545288086,-6.8241496086120605,-999.10107421875,0.17699669301509857,2.744666814804077,-1.2406905889511108
2064,1707,2.604299545288086,-6.8241496086120605,-999.10107421875,0.17699669301509857,2.744666814804077,-1.2406905889511108
2042,1707,2.604299545288086,-6.8241496086120605,-999.10107421875,0.17699669301509857,2.744666814804077,-1.2406905889511108
2027,1707,2.604299545288086,-6.8241496086120605,-999.10107421875,0.17699669301509857,2.744666814804077,-1.2406905889511108
2048,1707,2.604299545288086,-6.8241496086120605,-999.10107421875,0.17699669301509857,2.744666814804077,-1.2406905889511108
2135,1708,-5.749975681304932,-0.01828470639884472,-999.4403076171875,-4.25119161605835,-1.5211042165756226,0.7153992056846619
2110,1708,-5.749975681304932,-0.01828470639884472,-999.4403076171875,-4.25119161605835,-1.5211042165756226,0.7153992056846619
2099,1708,-5.749975681304932,-0.01828470639884472,-999.4403076171875,-4.25119161605835,-1.5211042165756226,0.7153992056846619
2114,1708,-5.749975681304932,-0.01828470639884472,-999.4403076171875,-4.25119161605835,-1.5211042165756226,0.7153992056846619
2066,1708,-5.749975681304932,-0.01828470639884472,-999.4403076171875,-4.25119161605835,-1.5211042165756226,0.7153992056846619
2041,1708,-5.749975681304932,-0.01828470639884472,-999.4403076171875,-4.25119161605835,-1.5211042165756226,0.7153992056846619
2030,1708,-5.749975681304932,-0.01828470639884472,-999.4403076171875,-4.25119161605835,-1.5211042165756226,0.7153992056846619
2045,1708,-5.749975681304932,-0.01828470639884472,-999.4403076171875,-4.25119161605835,-1.5211042165756226,0.7153992056846619
2136,1709,-7.4404425621032715,2.0245370864868164,-995.447509765625,0.5021449327468872,1.3574798107147217,-1.4691845178604126
2100,1709,-7.4404425621032715,2.0245370864868164,-995.447509765625,0.5021449327468872,1.3574798107147217,-1.4691845178604126
2101,1709,-7.4404425621032715,2.0245370864868164,-995.447509765625,0.5021449327468872,1.3574798107147217,-1.4691845178604126
2121,1709,-7.4404425621032715,2.0245370864868164,-995.447509765625,0.5021449327468872,1.3574798107147217,-1.4691845178604126
2067,1709,-7.4404425621032715,2.0245370864868164,-995.447509765625,0.5021449327468872,1.3574798107147217,-1.4691845178604126
2031,1709,-7.4404425621032715,2.0245370864868164,-995.447509765625,0.5021449327468872,1.3574798107147217,-1.4691845178604126
2032,1709,-7.4404425621032715,2.0245370864868164,-995.447509765625,0.5021449327468872,1.3574798107147217,-1.4691845178604126
2052,1709,-7.4404425621032715,2.0245370864868164,-995.447509765625,0.5021449327468872,1.3574798107147217,-1.4691845178604126
2138,1710,4.9819111824035645,-1.5150269269943237,-997.6173095703125,2.902708053588867,2.680863380432129,7.809784412384033
2103,1710,4.9819111824035645,-1.5150269269943237,-997.6173095703125,2.902708053588867,2.680863380432129,7.809784412384033
2108,1710,4.9819111824035645,-1.5150269269943237,-997.6173095703125,2.902708053588867,2.680863380432129,7.809784412384033
2120,1710,4.9819111824035645,-1.5150269269943237,-997.6173095703125,2.902708053588867,2.680863380432129,7.809784412384033
2069,1710,4.9819111824035645,-1.5150269269943237,-997.6173095703125,2.902708053588867,2.680863380432129,7.809784412384033
2034,1710,4.9819111824035645,-1.5150269269943237,-997.6173095703125,2.902708053588867,2.680863380432129,7.809784412384033
2039,1710,4.9819111824035645,-1.5150269269943237,-997.6173095703125,2.902708053588867,2.680863380432129,7.809784412384033
2051,1710,4.9819111824035645,-1.5150269269943237,-997.6173095703125,2.902708053588867,2.680863380432129,7.809784412384033
2163,1711,4.810191631317139,-9.1973237991333,-987.280029296875,4.693615436553955,-0.29632997512817383,-2.1609561443328857
2152,1711,4.810191631317139,-9.1973237991333,-987.280029296875,4.693615436553955,-0.29632997512817383,-2.1609561443328857
2151,1711,4.810191631317139,-9.1973237991333,-987.280029296875,4.693615436553955,-0.29632997512817383,-2.1609561443328857
2180,1711,4.810191631317139,-9.1973237991333,-987.280029296875,4.693615436553955,-0.29632997512817383,-2.1609561443328857
2094,1711,4.810191631317139,-9.1973237991333,-987.280029296875,4.693615436553955,-0.29632997512817383,-2.1609561443328857
2083,1711,4.810191631317139,-9.1973237991333,-987.280029296875,4.693615436553955,-0.29632997512817383,-2.1609561443328857
2082,1711,4.810191631317139,-9.1973237991333,-987.280029296875,4.693615436553955,-0.29632997512817383,-2.1609561443328857
2111,1711,4.810191631317139,-9.1973237991333,-987.280029296875,4.693615436553955,-0.29632997512817383,-2.1609561443328857
2180,1712,6.715006351470947,-9.320215225219727,-987.9673461914062,-0.03175738453865051,1.1334760189056396,-2.710674524307251
2151,1712,6.715006351470947,-9.320215225219727,-987.9673461914062,-0.03175738453865051,1.1334760189056396,-2.710674524307251
2160,1712,6.715006351470947,-9.320215225219727,-987.9673461914062,-0.03175738453865051,1.1334760189056396,-2.710674524307251
2165,1712,6.715006351470947,-9.320215225219727,-987.9673461914062,-0.03175738453865051,1.1334760189056396,-2.710674524307251
2111,1712,6.715006351470947,-9.320215225219727,-987.9673461914062,-0.03175738453865051,1.1334760189056396,-2.710674524307251
2082,1712,6.715006351470947,-9.320215225219727,-987.9673461914062,-0.03175738453865051,1.1334760189056396,-2.710674524307251
2091,1712,6.715006351470947,-9.320215225219727,-987.9673461914062,-0.03175738453865051,1.1334760189056396,-2.710674524307251
2096,1712,6.715006351470947,-9.320215225219727,-987.9673461914062,-0.03175738453865051,1.1334760189056396,-2.710674524307251
2161,1713,-6.978684425354004,3.4509031772613525,-989.33251953125,6.135817527770996,3.7043378353118896,-2.3700191974639893
2181,1713,-6.978684425354004,3.4509031772613525,-989.33251953125,6.135817527770996,3.7043378353118896,-2.3700191974639893
2164,1713,-6.978684425354004,3.4509031772613525,-989.33251953125,6.135817527770996,3.7043378353118896,-2.3700191974639893
2154,1713,-6.978684425354004,3.4509031772613525,-989.33251953125,6.135817527770996,3.7043378353118896,-2.3700191974639893
2092,1713,-6.978684425354004,3.4509031772613525,-989.33251953125,6.135817527770996,3.7043378353118896,-2.3700191974639893
2112,1713,-6.978684425354004,3.4509031772613525,-989.33251953125,6.135817527770996,3.7043378353118896,-2.3700191974639893
2095,1713,-6.978684425354004,3.4509031772613525,-989.33251953125,6.135817527770996,3.7043378353118896,-2.3700191974639893
2085,1713,-6.978684425354004,3.4509031772613525,-989.33251953125,6.135817527770996,3.7043378353118896,-2.3700191974639893
2152,1714,1.1938847303390503,-4.123740196228027,-989.1686401367188,7.629941463470459,1.9163601398468018,-2.5815670490264893
2163,1714,1.1938847303390503,-4.123740196228027,-989.1686401367188,7.629941463470459,1.9163601398468018,-2.5815670490264893
2162,1714,1.1938847303390503,-4.123740196228027,-989.1686401367188,7.629941463470459,1.9163601398468018,-2.5815670490264893
2153,1714,1.1938847303390503,-4.123740196228027,-989.1686401367188,7.629941463470459,1.9163601398468018,-2.5815670490264893
2083,1714,1.1938847303390503,-4.123740196228027,-989.1686401367188,7.629941463470459,1.9163601398468018,-2.5815670490264893
2094,1714,1.1938847303390503,-4.123740196228027,-989.1686401367188,7.629941463470459,1.9163601398468018,-2.5815670490264893
2093,1714,1.1938847303390503,-4.123740196228027,-989.1686401367188,7.629941463470459,1.9163601398468018,-2.5815670490264893
2084,1714,1.1938847303390503,-4.123740196228027,-989.1686401367188,7.629941463470459,1.9163601398468018,-2.5815670490264893
2191,1715,-1.5116024017333984,2.8029754161834717,-1020.6474609375,-2.2754018306732178,-6.042797088623047,4.5793585777282715
2204,1715,-1.5116024017333984,2.8029754161834717,-1020.6474609375,-2.2754018306732178,-6.042797088623047,4.5793585777282715
2183,1715,-1.5116024017333984,2.8029754161834717,-1020.6474609375,-2.2754018306732178,-6.042797088623047,4.5793585777282715
2194,1715,-1.5116024017333984,2.8029754161834717,-1020.6474609375,-2.2754018306732178,-6.042797088623047,4.5793585777282715
2122,1715,-1.5116024017333984,2.8029754161834717,-1020.6474609375,-2.2754018306732178,-6.042797088623047,4.5793585777282715
2135,1715,-1.5116024017333984,2.8029754161834717,-1020.6474609375,-2.2754018306732178,-6.042797088623047,4.5793585777282715
2114,1715,-1.5116024017333984,2.8029754161834717,-1020.6474609375,-2.2754018306732178,-6.042797088623047,4.5793585777282715
2125,1715,-1.5116024017333984,2.8029754161834717,-1020.6474609375,-2.2754018306732178,-6.042797088623047,4.5793585777282715
2207,1716,12.79129409790039,12.099258422851562,-995.971435546875,0.9774113893508911,-4.311725616455078,16.444143295288086
2185,1716,12.79129409790039,12.099258422851562,-995.971435546875,0.9774113893508911,-4.311725616455078,16.444143295288086
2171,1716,12.79129409790039,12.099258422851562,-995.971435546875,0.9774113893508911,-4.311725616455078,16.444143295288086
2172,1716,12.79129409790039,12.099258422851562,-995.971435546875,0.9774113893508911,-4.311725616455078,16.444143295288086
2138,1716,12.79129409790039,12.099258422851562,-995.971435546875,0.9774113893508911,-4.311725616455078,16.444143295288086
2116,1716,12.79129409790039,12.099258422851562,-995.971435546875,0.9774113893508911,-4.311725616455078,16.444143295288086
2102,1716,12.79129409790039,12.099258422851562,-995.971435546875,0.9774113893508911,-4.311725616455078,16.444143295288086
2103,1716,12.79129409790039,12.099258422851562,-995.971435546875,0.9774113893508911,-4.311725616455078,16.444143295288086
2195,1717,12.88100528717041,13.221636772155762,-1018.7750854492188,-0.31865689158439636,-8.733858108520508,-3.8849520683288574
2192,1717,12.88100528717041,13.221636772155762,-1018.7750854492188,-0.31865689158439636,-8.733858108520508,-3.8849520683288574
2191,1717,12.88100528717041,13.221636772155762,-1018.7750854492188,-0.31865689158439636,-8.733858108520508,-3.8849520683288574
2194,1717,12.88100528717041,13.221636772155762,-1018.7750854492188,-0.31865689158439636,-8.733858108520508,-3.8849520683288574
2126,1717,12.88100528717041,13.221636772155762,-1018.7750854492188,-0.31865689158439636,-8.733858108520508,-3.8849520683288574
2123,1717,12.88100528717041,13.221636772155762,-1018.7750854492188,-0.31865689158439636,-8.733858108520508,-3.8849520683288574
2122,1717,12.88100528717041,13.221636772155762,-1018.7750854492188,-0.31865689158439636,-8.733858108520508,-3.8849520683288574
2125,1717,12.88100528717041,13.221636772155762,-1018.7750854492188,-0.31865689158439636,-8.733858108520508,-3.8849520683288574
2186,1718,2.580275058746338,-0.6389960050582886,-1027.286376953125,-2.215909242630005,5.023971080780029,-9.148477554321289
2203,1718,2.580275058746338,-0.6389960050582886,-1027.286376953125,-2.215909242630005,5.023971080780029,-9.148477554321289
2191,1718,2.580275058746338,-0.6389960050582886,-1027.286376953125,-2.215909242630005,5.023971080780029,-9.148477554321289
2192,1718,2.580275058746338,-0.6389960050582886,-1027.286376953125,-2.215909242630005,5.023971080780029,-9.148477554321289
2117,1718,2.580275058746338,-0.6389960050582886,-1027.286376953125,-2.215909242630005,5.023971080780029,-9.148477554321289
2134,1718,2.580275058746338,-0.6389960050582886,-1027.286376953125,-2.215909242630005,5.023971080780029,-9.148477554321289
2122,1718,2.580275058746338,-0.6389960050582886,-1027.286376953125,-2.215909242630005,5.023971080780029,-9.148477554321289
2123,1718,2.580275058746338,-0.6389960050582886,-1027.286376953125,-2.215909242630005,5.023971080780029,-9.148477554321289
2166,1719,10.71837329864502,13.28133773803711,-1003.1378173828125,-0.9163945913314819,-12.259159088134766,-11.695592880249023
2179,1719,10.71837329864502,13.28133773803711,-1003.1378173828125,-0.9163945913314819,-12.259159088134766,-11.695592880249023
2204,1719,10.71837329864502,13.28133773803711,-1003.1378173828125,-0.9163945913314819,-12.259159088134766,-11.695592880249023
2191,1719,10.71837329864502,13.28133773803711,-1003.1378173828125,-0.9163945913314819,-12.259159088134766,-11.695592880249023
2097,1719,10.71837329864502,13.28133773803711,-1003.1378173828125,-0.9163945913314819,-12.259159088134766,-11.695592880249023
2110,1719,10.71837329864502,13.28133773803711,-1003.1378173828125,-0.9163945913314819,-12.259159088134766,-11.695592880249023
2135,1719,10.71837329864502,13.28133773803711,-1003.1378173828125,-0.9163945913314819,-12.259159088134766,-11.695592880249023
2122,1719,10.71837329864502,13.28133773803711,-1003.1378173828125,-0.9163945913314819,-12.259159088134766,-11.695592880249023
2206,1720,13.677748680114746,16.238218307495117,-987.4554443359375,-2.126530647277832,-15.00290584564209,9.815075874328613
2190,1720,13.677748680114746,16.238218307495117,-987.4554443359375,-2.126530647277832,-15.00290584564209,9.815075874328613
2170,1720,13.677748680114746,16.238218307495117,-987.4554443359375,-2.126530647277832,-15.00290584564209,9.815075874328613
2178,1720,13.677748680114746,16.238218307495117,-987.4554443359375,-2.126530647277832,-15.00290584564209,9.815075874328613
2137,1720,13.677748680114746,16.238218307495117,-987.4554443359375,-2.126530647277832,-15.00290584564209,9.815075874328613
2121,1720,13.677748680114746,16.238218307495117,-987.4554443359375,-2.126530647277832,-15.00290584564209,9.815075874328613
2101,1720,13.677748680114746,16.238218307495117,-987.4554443359375,-2.126530647277832,-15.00290584564209,9.815075874328613
2109,1720,13.677748680114746,16.238218307495117,-987.4554443359375,-2.126530647277832,-15.00290584564209,9.815075874328613
2200,1721,3.678222417831421,5.400451183319092,-1027.937744140625,-3.9257867336273193,-0.021916894242167473,11.240782737731934
2195,1721,3.678222417831421,5.400451183319092,-1027.937744140625,-3.9257867336273193,-0.021916894242167473,11.240782737731934
2174,1721,3.678222417831421,5.400451183319092,-1027.937744140625,-3.9257867336273193,-0.021916894242167473,11.240782737731934
2188,1721,3.678222417831421,5.400451183319092,-1027.937744140625,-3.9257867336273193,-0.021916894242167473,11.240782737731934
2131,1721,3.678222417831421,5.400451183319092,-1027.937744140625,-3.9257867336273193,-0.021916894242167473,11.240782737731934
2126,1721,3.678222417831421,5.400451183319092,-1027.937744140625,-3.9257867336273193,-0.021916894242167473,11.240782737731934
2105,1721,3.678222417831421,5.400451183319092,-1027.937744140625,-3.9257867336273193,-0.021916894242167473,11.240782737731934
2119,1721,3.678222417831421,5.400451183319092,-1027.937744140625,-3.9257867336273193,-0.021916894242167473,11.240782737731934
2174,1722,9.988492012023926,7.295962810516357,-1003.4530029296875,0.07081864774227142,8.556337356567383,9.302403450012207
2189,1722,9.988492012023926,7.295962810516357,-1003.4530029296875,0.07081864774227142,8.556337356567383,9.302403450012207
2197,1722,9.988492012023926,7.295962810516357,-1003.4530029296875,0.07081864774227142,8.556337356567383,9.302403450012207
2198,1722,9.988492012023926,7.295962810516357,-1003.4530029296875,0.07081864774227142,8.556337356567383,9.302403450012207
2105,1722,9.988492012023926,7.295962810516357,-1003.4530029296875,0.07081864774227142,8.556337356567383,9.302403450012207
2120,1722,9.988492012023926,7.295962810516357,-1003.4530029296875,0.07081864774227142,8.556337356567383,9.302403450012207
2128,1722,9.988492012023926,7.295962810516357,-1003.4530029296875,0.07081864774227142,8.556337356567383,9.302403450012207
2129,1722,9.988492012023926,7.295962810516357,-1003.4530029296875,0.07081864774227142,8.556337356567383,9.302403450012207
2181,1723,14.387951850891113,13.15643310546875,-1000.4073486328125,1.7979296445846558,17.612781524658203,-11.43791389465332
2162,1723,14.387951850891113,13.15643310546875,-1000.4073486328125,1.7979296445846558,17.612781524658203,-11.43791389465332
2201,1723,14.387951850891113,13.15643310546875,-1000.4073486328125,1.7979296445846558,17.612781524658203,-11.43791389465332
2184,1723,14.387951850891113,13.15643310546875,-1000.4073486328125,1.7979296445846558,17.612781524658203,-11.43791389465332
2112,1723,14.387951850891113,13.15643310546875,-1000.4073486328125,1.7979296445846558,17.612781524658203,-11.43791389465332
2093,1723,14.387951850891113,13.15643310546875,-1000.4073486328125,1.7979296445846558,17.612781524658203,-11.43791389465332
2132,1723,14.387951850891113,13.15643310546875,-1000.4073486328125,1.7979296445846558,17.612781524658203,-11.43791389465332
2115,1723,14.387951850891113,13.15643310546875,-1000.4073486328125,1.7979296445846558,17.612781524658203,-11.43791389465332
2208,1724,12.866422653198242,12.580554008483887,-994.6927490234375,0.22385568916797638,14.926197052001953,-5.302622318267822
2164,1724,12.866422653198242,12.580554008483887,-994.6927490234375,0.22385568916797638,14.926197052001953,-5.302622318267822
2181,1724,12.866422653198242,12.580554008483887,-994.6927490234375,0.22385568916797638,14.926197052001953,-5.302622318267822
2184,1724,12.866422653198242,12.580554008483887,-994.6927490234375,0.22385568916797638,14.926197052001953,-5.302622318267822
2139,1724,12.866422653198242,12.580554008483887,-994.6927490234375,0.22385568916797638,14.926197052001953,-5.302622318267822
2095,1724,12.866422653198242,12.580554008483887,-994.6927490234375,0.22385568916797638,14.926197052001953,-5.302622318267822
2112,1724,12.866422653198242,12.580554008483887,-994.6927490234375,0.22385568916797638,14.926197052001953,-5.302622318267822
2115,1724,12.866422653198242,12.580554008483887,-994.6927490234375,0.22385568916797638,14.926197052001953,-5.302622318267822
2168,1725,13.916178703308105,14.717912673950195,-995.5877685546875,0.15754437446594238,-19.248249053955078,-4.130070686340332
2169,1725,13.916178703308105,14.717912673950195,-995.5877685546875,0.15754437446594238,-19.248249053955078,-4.130070686340332
2205,1725,13.916178703308105,14.717912673950195,-995.5877685546875,0.15754437446594238,-19.248249053955078,-4.130070686340332
2183,1725,13.916178703308105,14.717912673950195,-995.5877685546875,0.15754437446594238,-19.248249053955078,-4.130070686340332
2099,1725,13.916178703308105,14.717912673950195,-995.5877685546875,0.15754437446594238,-19.248249053955078,-4.130070686340332
2100,1725,13.916178703308105,14.717912673950195,-995.5877685546875,0.15754437446594238,-19.248249053955078,-4.130070686340332
2136,1725,13.916178703308105,14.717912673950195,-995.5877685546875,0.15754437446594238,-19.248249053955078,-4.130070686340332
2114,1725,13.916178703308105,14.717912673950195,-995.5877685546875,0.15754437446594238,-19.248249053955078,-4.130070686340332
2153,1726,-3.0893795490264893,0.6815752387046814,-986.6380004882812,7.668662071228027,0.8287050724029541,-1.6561379432678223
2162,1726,-3.0893795490264893,0.6815752387046814,-986.6380004882812,7.668662071228027,0.8287050724029541,-1.6561379432678223
2181,1726,-3.0893795490264893,0.6815752387046814,-986.6380004882812,7.668662071228027,0.8287050724029541,-1.6561379432678223
2161,1726,-3.0893795490264893,0.6815752387046814,-986.6380004882812,7.668662071228027,0.8287050724029541,-1.6561379432678223
2084,1726,-3.0893795490264893,0.6815752387046814,-986.6380004882812,7.668662071228027,0.8287050724029541,-1.6561379432678223
2093,1726,-3.0893795490264893,0.6815752387046814,-986.6380004882812,7.668662071228027,0.8287050724029541,-1.6561379432678223
2112,1726,-3.0893795490264893,0.6815752387046814,-986.6380004882812,7.668662071228027,0.8287050724029541,-1.6561379432678223
2092,1726,-3.0893795490264893,0.6815752387046814,-986.6380004882812,7.668662071228027,0.8287050724029541,-1.6561379432678223
2150,1727,6.179259300231934,-4.799657344818115,-989.456787109375,-4.345417499542236,-1.1636085510253906,-4.470395565032959
2196,1727,6.179259300231934,-4.799657344818115,-989.456787109375,-4.345417499542236,-1.1636085510253906,-4.470395565032959
2165,1727,6.179259300231934,-4.799657344818115,-989.456787109375,-4.345417499542236,-1.1636085510253906,-4.470395565032959
2160,1727,6.179259300231934,-4.799657344818115,-989.456787109375,-4.345417499542236,-1.1636085510253906,-4.470395565032959
2081,1727,6.179259300231934,-4.799657344818115,-989.456787109375,-4.345417499542236,-1.1636085510253906,-4.470395565032959
2127,1727,6.179259300231934,-4.799657344818115,-989.456787109375,-4.345417499542236,-1.1636085510253906,-4.470395565032959
2096,1727,6.179259300231934,-4.799657344818115,-989.456787109375,-4.345417499542236,-1.1636085510253906,-4.470395565032959
2091,1727,6.179259300231934,-4.799657344818115,-989.456787109375,-4.345417499542236,-1.1636085510253906,-4.470395565032959
2166,1728,-0.8170634508132935,-1.0311076641082764,-988.9397583007812,-7.511331558227539,-3.2312161922454834,-2.296928882598877
2149,1728,-0.8170634508132935,-1.0311076641082764,-988.9397583007812,-7.511331558227539,-3.2312161922454834,-2.296928882598877
2159,1728,-0.8170634508132935,-1.0311076641082764,-988.9397583007812,-7.511331558227539,-3.2312161922454834,-2.296928882598877
2179,1728,-0.8170634508132935,-1.0311076641082764,-988.9397583007812,-7.511331558227539,-3.2312161922454834,-2.296928882598877
2097,1728,-0.8170634508132935,-1.0311076641082764,-988.9397583007812,-7.511331558227539,-3.2312161922454834,-2.296928882598877
2080,1728,-0.8170634508132935,-1.0311076641082764,-988.9397583007812,-7.511331558227539,-3.2312161922454834,-2.296928882598877
2090,1728,-0.8170634508132935,-1.0311076641082764,-988.9397583007812,-7.511331558227539,-3.2312161922454834,-2.296928882598877
2110,1728,-0.8170634508132935,-1.0311076641082764,-988.9397583007812,-7.511331558227539,-3.2312161922454834,-2.296928882598877
2167,1729,-8.602984428405762,6.709826469421387,-987.0628662109375,2.3817989826202393,2.378284454345703,-0.02495505101978779
2155,1729,-8.602984428405762,6.709826469421387,-987.0628662109375,2.3817989826202393,2.378284454345703,-0.02495505101978779
2154,1729,-8.602984428405762,6.709826469421387,-987.0628662109375,2.3817989826202393,2.378284454345703,-0.02495505101978779
2164,1729,-8.602984428405762,6.709826469421387,-987.0628662109375,2.3817989826202393,2.378284454345703,-0.02495505101978779
2098,1729,-8.602984428405762,6.709826469421387,-987.0628662109375,2.3817989826202393,2.378284454345703,-0.02495505101978779
2086,1729,-8.602984428405762,6.709826469421387,-987.0628662109375,2.3817989826202393,2.378284454345703,-0.02495505101978779
2085,1729,-8.602984428405762,6.709826469421387,-987.0628662109375,2.3817989826202393,2.378284454345703,-0.02495505101978779
2095,1729,-8.602984428405762,6.709826469421387,-987.0628662109375,2.3817989826202393,2.378284454345703,-0.02495505101978779
2179,1730,-6.650595188140869,3.31335186958313,-988.2291870117188,-6.688164710998535,-3.3864591121673584,-1.3069859743118286
2159,1730,-6.650595188140869,3.31335186958313,-988.2291870117188,-6.688164710998535,-3.3864591121673584,-1.3069859743118286
2148,1730,-6.650595188140869,3.31335186958313,-988.2291870117188,-6.688164710998535,-3.3864591121673584,-1.3069859743118286
2168,1730,-6.650595188140869,3.31335186958313,-988.2291870117188,-6.688164710998535,-3.3864591121673584,-1.3069859743118286
2110,1730,-6.650595188140869,3.31335186958313,-988.2291870117188,-6.688164710998535,-3.3864591121673584,-1.3069859743118286
2090,1730,-6.650595188140869,3.31335186958313,-988.2291870117188,-6.688164710998535,-3.3864591121673584,-1.3069859743118286
2079,1730,-6.650595188140869,3.31335186958313,-988.2291870117188,-6.688164710998535,-3.3864591121673584,-1.3069859743118286
2099,1730,-6.650595188140869,3.31335186958313,-988.2291870117188,-6.688164710998535,-3.3864591121673584,-1.3069859743118286
2203,1731,13.196002006530762,10.522774696350098,-1005.0140991210938,-0.9535195827484131,-10.588571548461914,-14.067950248718262
2196,1731,13.196002006530762,10.522774696350098,-1005.0140991210938,-0.9535195827484131,-10.588571548461914,-14.067950248718262
2166,1731,13.196002006530762,10.522774696350098,-1005.0140991210938,-0.9535195827484131,-10.588571548461914,-14.067950248718262
2191,1731,13.196002006530762,10.522774696350098,-1005.0140991210938,-0.9535195827484131,-10.588571548461914,-14.067950248718262
2134,1731,13.196002006530762,10.522774696350098,-1005.0140991210938,-0.9535195827484131,-10.588571548461914,-14.067950248718262
2127,1731,13.196002006530762,10.522774696350098,-1005.0140991210938,-0.9535195827484131,-10.588571548461914,-14.067950248718262
2097,1731,13.196002006530762,10.522774696350098,-1005.0140991210938,-0.9535195827484131,-10.588571548461914,-14.067950248718262
2122,1731,13.196002006530762,10.522774696350098,-1005.0140991210938,-0.9535195827484131,-10.588571548461914,-14.067950248718262
2168,1732,-11.551432609558105,5.26294469833374,-988.1995849609375,-2.720918655395508,-2.884490728378296,0.4231577515602112
2148,1732,-11.551432609558105,5.26294469833374,-988.1995849609375,-2.720918655395508,-2.884490728378296,0.4231577515602112
2147,1732,-11.551432609558105,5.26294469833374,-988.1995849609375,-2.720918655395508,-2.884490728378296,0.4231577515602112
2169,1732,-11.551432609558105,5.26294469833374,-988.1995849609375,-2.720918655395508,-2.884490728378296,0.4231577515602112
2099,1732,-11.551432609558105,5.26294469833374,-988.1995849609375,-2.720918655395508,-2.884490728378296,0.4231577515602112
2079,1732,-11.551432609558105,5.26294469833374,-988.1995849609375,-2.720918655395508,-2.884490728378296,0.4231577515602112
2078,1732,-11.551432609558105,5.26294469833374,-988.1995849609375,-2.720918655395508,-2.884490728378296,0.4231577515602112
2100,1732,-11.551432609558105,5.26294469833374,-988.1995849609375,-2.720918655395508,-2.884490728378296,0.4231577515602112
2169,1733,-10.849587440490723,5.824129104614258,-986.6605224609375,2.5085623264312744,-1.733762264251709,-0.32427486777305603
2147,1733,-10.849587440490723,5.824129104614258,-986.6605224609375,2.5085623264312744,-1.733762264251709,-0.32427486777305603
2146,1733,-10.849587440490723,5.824129104614258,-986.6605224609375,2.5085623264312744,-1.733762264251709,-0.32427486777305603
2170,1733,-10.849587440490723,5.824129104614258,-986.6605224609375,2.5085623264312744,-1.733762264251709,-0.32427486777305603
2100,1733,-10.849587440490723,5.824129104614258,-986.6605224609375,2.5085623264312744,-1.733762264251709,-0.32427486777305603
2078,1733,-10.849587440490723,5.824129104614258,-986.6605224609375,2.5085623264312744,-1.733762264251709,-0.32427486777305603
2077,1733,-10.849587440490723,5.824129104614258,-986.6605224609375,2.5085623264312744,-1.733762264251709,-0.32427486777305603
2101,1733,-10.849587440490723,5.824129104614258,-986.6605224609375,2.5085623264312744,-1.733762264251709,-0.32427486777305603
2200,1734,-2.384129285812378,5.907077789306641,-1018.2003784179688,-2.7986342906951904,7.464397430419922,-3.6608662605285645
2188,1734,-2.384129285812378,5.907077789306641,-1018.2003784179688,-2.7986342906951904,7.464397430419922,-3.6608662605285645
2199,1734,-2.384129285812378,5.907077789306641,-1018.2003784179688,-2.7986342906951904,7.464397430419922,-3.6608662605285645
2193,1734,-2.384129285812378,5.907077789306641,-1018.2003784179688,-2.7986342906951904,7.464397430419922,-3.6608662605285645
2131,1734,-2.384129285812378,5.907077789306641,-1018.2003784179688,-2.7986342906951904,7.464397430419922,-3.6608662605285645
2119,1734,-2.384129285812378,5.907077789306641,-1018.2003784179688,-2.7986342906951904,7.464397430419922,-3.6608662605285645
2130,1734,-2.384129285812378,5.907077789306641,-1018.2003784179688,-2.7986342906951904,7.464397430419922,-3.6608662605285645
2124,1734,-2.384129285812378,5.907077789306641,-1018.2003784179688,-2.7986342906951904,7.464397430419922,-3.6608662605285645
2155,1735,-7.659265995025635,6.6537604331970215,-989.8304443359375,-1.5894005298614502,4.44434118270874,-0.06389900296926498
2167,1735,-7.659265995025635,6.6537604331970215,-989.8304443359375,-1.5894005298614502,4.44434118270874,-0.06389900296926498
2175,1735,-7.659265995025635,6.6537604331970215,-989.8304443359375,-1.5894005298614502,4.44434118270874,-0.06389900296926498
2140,1735,-7.659265995025635,6.6537604331970215,-989.8304443359375,-1.5894005298614502,4.44434118270874,-0.06389900296926498
2086,1735,-7.659265995025635,6.6537604331970215,-989.8304443359375,-1.5894005298614502,4.44434118270874,-0.06389900296926498
2098,1735,-7.659265995025635,6.6537604331970215,-989.8304443359375,-1.5894005298614502,4.44434118270874,-0.06389900296926498
2106,1735,-7.659265995025635,6.6537604331970215,-989.8304443359375,-1.5894005298614502,4.44434118270874,-0.06389900296926498
2071,1735,-7.659265995025635,6.6537604331970215,-989.8304443359375,-1.5894005298614502,4.44434118270874,-0.06389900296926498
2170,1736,-7.426990985870361,2.3671815395355225,-989.458251953125,6.972053050994873,-3.2946221828460693,0.8198371529579163
2146,1736,-7.426990985870361,2.3671815395355225,-989.458251953125,6.972053050994873,-3.2946221828460693,0.8198371529579163
2158,1736,-7.426990985870361,2.3671815395355225,-989.458251953125,6.972053050994873,-3.2946221828460693,0.8198371529579163
2178,1736,-7.426990985870361,2.3671815395355225,-989.458251953125,6.972053050994873,-3.2946221828460693,0.8198371529579163
2101,1736,-7.426990985870361,2.3671815395355225,-989.458251953125,6.972053050994873,-3.2946221828460693,0.8198371529579163
2077,1736,-7.426990985870361,2.3671815395355225,-989.458251953125,6.972053050994873,-3.2946221828460693,0.8198371529579163
2089,1736,-7.426990985870361,2.3671815395355225,-989.458251953125,6.972053050994873,-3.2946221828460693,0.8198371529579163
2109,1736,-7.426990985870361,2.3671815395355225,-989.458251953125,6.972053050994873,-3.2946221828460693,0.8198371529579163
2178,1737,-1.6100525856018066,-0.7450053691864014,-986.767822265625,8.238850593566895,-1.8896490335464478,1.670200228691101
2158,1737,-1.6100525856018066,-0.7450053691864014,-986.767822265625,8.238850593566895,-1.8896490335464478,1.670200228691101
2145,1737,-1.6100525856018066,-0.7450053691864014,-986.767822265625,8.238850593566895,-1.8896490335464478,1.670200228691101
2171,1737,-1.6100525856018066,-0.7450053691864014,-986.767822265625,8.238850593566895,-1.8896490335464478,1.670200228691101
2109,1737,-1.6100525856018066,-0.7450053691864014,-986.767822265625,8.238850593566895,-1.8896490335464478,1.670200228691101
2089,1737,-1.6100525856018066,-0.7450053691864014,-986.767822265625,8.238850593566895,-1.8896490335464478,1.670200228691101
2076,1737,-1.6100525856018066,-0.7450053691864014,-986.767822265625,8.238850593566895,-1.8896490335464478,1.670200228691101
2102,1737,-1.6100525856018066,-0.7450053691864014,-986.767822265625,8.238850593566895,-1.8896490335464478,1.670200228691101
2171,1738,2.70053768157959,-3.4423935413360596,-989.7606201171875,6.178555011749268,-2.9909069538116455,3.6139044761657715
2145,1738,2.70053768157959,-3.4423935413360596,-989.7606201171875,6.178555011749268,-2.9909069538116455,3.6139044761657715
2144,1738,2.70053768157959,-3.4423935413360596,-989.7606201171875,6.178555011749268,-2.9909069538116455,3.6139044761657715
2172,1738,2.70053768157959,-3.4423935413360596,-989.7606201171875,6.178555011749268,-2.9909069538116455,3.6139044761657715
2102,1738,2.70053768157959,-3.4423935413360596,-989.7606201171875,6.178555011749268,-2.9909069538116455,3.6139044761657715
2076,1738,2.70053768157959,-3.4423935413360596,-989.7606201171875,6.178555011749268,-2.9909069538116455,3.6139044761657715
2075,1738,2.70053768157959,-3.4423935413360596,-989.7606201171875,6.178555011749268,-2.9909069538116455,3.6139044761657715
2103,1738,2.70053768157959,-3.4423935413360596,-989.7606201171875,6.178555011749268,-2.9909069538116455,3.6139044761657715
2172,1739,6.634568691253662,-5.20951509475708,-987.7865600585938,3.9914424419403076,-0.20894284546375275,4.146143436431885
2144,1739,6.634568691253662,-5.20951509475708,-987.7865600585938,3.9914424419403076,-0.20894284546375275,4.146143436431885
2157,1739,6.634568691253662,-5.20951509475708,-987.7865600585938,3.9914424419403076,-0.20894284546375275,4.146143436431885
2177,1739,6.634568691253662,-5.20951509475708,-987.7865600585938,3.9914424419403076,-0.20894284546375275,4.146143436431885
2103,1739,6.634568691253662,-5.20951509475708,-987.7865600585938,3.9914424419403076,-0.20894284546375275,4.146143436431885
2075,1739,6.634568691253662,-5.20951509475708,-987.7865600585938,3.9914424419403076,-0.20894284546375275,4.146143436431885
2088,1739,6.634568691253662,-5.20951509475708,-987.7865600585938,3.9914424419403076,-0.20894284546375275,4.146143436431885
2108,1739,6.634568691253662,-5.20951509475708,-987.7865600585938,3.9914424419403076,-0.20894284546375275,4.146143436431885
2177,1740,4.887011528015137,-13.787382125854492,-988.2950439453125,0.2323702871799469,-0.005714921280741692,1.2216413021087646
2157,1740,4.887011528015137,-13.787382125854492,-988.2950439453125,0.2323702871799469,-0.005714921280741692,1.2216413021087646
2143,1740,4.887011528015137,-13.787382125854492,-988.2950439453125,0.2323702871799469,-0.005714921280741692,1.2216413021087646
2173,1740,4.887011528015137,-13.787382125854492,-988.2950439453125,0.2323702871799469,-0.005714921280741692,1.2216413021087646
2108,1740,4.887011528015137,-13.787382125854492,-988.2950439453125,0.2323702871799469,-0.005714921280741692,1.2216413021087646
2088,1740,4.887011528015137,-13.787382125854492,-988.2950439453125,0.2323702871799469,-0.005714921280741692,1.2216413021087646
2074,1740,4.887011528015137,-13.787382125854492,-988.2950439453125,0.2323702871799469,-0.005714921280741692,1.2216413021087646
2104,1740,4.887011528015137,-13.787382125854492,-988.2950439453125,0.2323702871799469,-0.005714921280741692,1.2216413021087646
2197,1741,5.41917610168457,-0.7307875752449036,-989.2454833984375,-5.63140344619751,1.7292786836624146,4.524760723114014
2142,1741,5.41917610168457,-0.7307875752449036,-989.2454833984375,-5.63140344619751,1.7292786836624146,4.524760723114014
2141,1741,5.41917610168457,-0.7307875752449036,-989.2454833984375,-5.63140344619751,1.7292786836624146,4.524760723114014
2198,1741,5.41917610168457,-0.7307875752449036,-989.2454833984375,-5.63140344619751,1.7292786836624146,4.524760723114014
2128,1741,5.41917610168457,-0.7307875752449036,-989.2454833984375,-5.63140344619751,1.7292786836624146,4.524760723114014
2073,1741,5.41917610168457,-0.7307875752449036,-989.2454833984375,-5.63140344619751,1.7292786836624146,4.524760723114014
2072,1741,5.41917610168457,-0.7307875752449036,-989.2454833984375,-5.63140344619751,1.7292786836624146,4.524760723114014
2129,1741,5.41917610168457,-0.7307875752449036,-989.2454833984375,-5.63140344619751,1.7292786836624146,4.524760723114014
2176,1742,-5.040991306304932,5.792529106140137,-988.3237915039062,-5.284435749053955,3.263746738433838,2.399451971054077
2156,1742,-5.040991306304932,5.792529106140137,-988.3237915039062,-5.284435749053955,3.263746738433838,2.399451971054077
2140,1742,-5.040991306304932,5.792529106140137,-988.3237915039062,-5.284435749053955,3.263746738433838,2.399451971054077
2175,1742,-5.040991306304932,5.792529106140137,-988.3237915039062,-5.284435749053955,3.263746738433838,2.399451971054077
2107,1742,-5.040991306304932,5.792529106140137,-988.3237915039062,-5.284435749053955,3.263746738433838,2.399451971054077
2087,1742,-5.040991306304932,5.792529106140137,-988.3237915039062,-5.284435749053955,3.263746738433838,2.399451971054077
2071,1742,-5.040991306304932,5.792529106140137,-988.3237915039062,-5.284435749053955,3.263746738433838,2.399451971054077
2106,1742,-5.040991306304932,5.792529106140137,-988.3237915039062,-5.284435749053955,3.263746738433838,2.399451971054077
2199,1743,15.77921199798584,15.33556842803955,-988.5572509765625,0.4862361252307892,17.541128158569336,3.5568008422851562
2175,1743,15.77921199798584,15.33556842803955,-988.5572509765625,0.4862361252307892,17.541128158569336,3.5568008422851562
2167,1743,15.77921199798584,15.33556842803955,-988.5572509765625,0.4862361252307892,17.541128158569336,3.5568008422851562
2182,1743,15.77921199798584,15.33556842803955,-988.5572509765625,0.4862361252307892,17.541128158569336,3.5568008422851562
2130,1743,15.77921199798584,15.33556842803955,-988.5572509765625,0.4862361252307892,17.541128158569336,3.5568008422851562
2106,1743,15.77921199798584,15.33556842803955,-988.5572509765625,0.4862361252307892,17.541128158569336,3.5568008422851562
2098,1743,15.77921199798584,15.33556842803955,-988.5572509765625,0.4862361252307892,17.541128158569336,3.5568008422851562
2113,1743,15.77921199798584,15.33556842803955,-988.5572509765625,0.4862361252307892,17.541128158569336,3.5568008422851562
2198,1744,15.148870468139648,12.73949146270752,-995.4036254882812,-0.739650309085846,10.464614868164062,13.889935493469238
2176,1744,15.148870468139648,12.73949146270752,-995.4036254882812,-0.739650309085846,10.464614868164062,13.889935493469238
2188,1744,15.148870468139648,12.73949146270752,-995.4036254882812,-0.739650309085846,10.464614868164062,13.889935493469238
2174,1744,15.148870468139648,12.73949146270752,-995.4036254882812,-0.739650309085846,10.464614868164062,13.889935493469238
2129,1744,15.148870468139648,12.73949146270752,-995.4036254882812,-0.739650309085846,10.464614868164062,13.889935493469238
2107,1744,15.148870468139648,12.73949146270752,-995.4036254882812,-0.739650309085846,10.464614868164062,13.889935493469238
2119,1744,15.148870468139648,12.73949146270752,-995.4036254882812,-0.739650309085846,10.464614868164062,13.889935493469238
2105,1744,15.148870468139648,12.73949146270752,-995.4036254882812,-0.739650309085846,10.464614868164062,13.889935493469238
2173,1745,4.132760047912598,-11.533747673034668,-987.4906005859375,-4.628316402435303,0.007999143563210964,0.524441123008728
2143,1745,4.132760047912598,-11.533747673034668,-987.4906005859375,-4.628316402435303,0.007999143563210964,0.524441123008728
2142,1745,4.132760047912598,-11.533747673034668,-987.4906005859375,-4.628316402435303,0.007999143563210964,0.524441123008728
2197,1745,4.132760047912598,-11.533747673034668,-987.4906005859375,-4.628316402435303,0.007999143563210964,0.524441123008728
2104,1745,4.132760047912598,-11.533747673034668,-987.4906005859375,-4.628316402435303,0.007999143563210964,0.524441123008728
2074,1745,4.132760047912598,-11.533747673034668,-987.4906005859375,-4.628316402435303,0.007999143563210964,0.524441123008728
2073,1745,4.132760047912598,-11.533747673034668,-987.4906005859375,-4.628316402435303,0.007999143563210964,0.524441123008728
2128,1745,4.132760047912598,-11.533747673034668,-987.4906005859375,-4.628316402435303,0.007999143563210964,0.524441123008728
2182,1746,14.097516059875488,15.11103630065918,-1001.8178100585938,-0.5225085020065308,19.328937530517578,-5.384455680847168
2167,1746,14.097516059875488,15.11103630065918,-1001.8178100585938,-0.5225085020065308,19.328937530517578,-5.384455680847168
2164,1746,14.097516059875488,15.11103630065918,-1001.8178100585938,-0.5225085020065308,19.328937530517578,-5.384455680847168
2208,1746,14.097516059875488,15.11103630065918,-1001.8178100585938,-0.5225085020065308,19.328937530517578,-5.384455680847168
2113,1746,14.097516059875488,15.11103630065918,-1001.8178100585938,-0.5225085020065308,19.328937530517578,-5.384455680847168
2098,1746,14.097516059875488,15.11103630065918,-1001.8178100585938,-0.5225085020065308,19.328937530517578,-5.384455680847168
2095,1746,14.097516059875488,15.11103630065918,-1001.8178100585938,-0.5225085020065308,19.328937530517578,-5.384455680847168
2139,1746,14.097516059875488,15.11103630065918,-1001.8178100585938,-0.5225085020065308,19.328937530517578,-5.384455680847168
2193,1747,5.276948928833008,7.676790237426758,-1013.6000366210938,2.436835289001465,7.905567646026611,-7.814994812011719
2208,1747,5.276948928833008,7.676790237426758,-1013.6000366210938,2.436835289001465,7.905567646026611,-7.814994812011719
2184,1747,5.276948928833008,7.676790237426758,-1013.6000366210938,2.436835289001465,7.905567646026611,-7.814994812011719
2192,1747,5.276948928833008,7.676790237426758,-1013.6000366210938,2.436835289001465,7.905567646026611,-7.814994812011719
2124,1747,5.276948928833008,7.676790237426758,-1013.6000366210938,2.436835289001465,7.905567646026611,-7.814994812011719
2139,1747,5.276948928833008,7.676790237426758,-1013.6000366210938,2.436835289001465,7.905567646026611,-7.814994812011719
2115,1747,5.276948928833008,7.676790237426758,-1013.6000366210938,2.436835289001465,7.905567646026611,-7.814994812011719
2123,1747,5.276948928833008,7.676790237426758,-1013.6000366210938,2.436835289001465,7.905567646026611,-7.814994812011719
2163,1748,13.799117088317871,13.407690048217773,-996.8377075195312,0.6593500971794128,8.918537139892578,-18.197389602661133
2180,1748,13.799117088317871,13.407690048217773,-996.8377075195312,0.6593500971794128,8.918537139892578,-18.197389602661133
2202,1748,13.799117088317871,13.407690048217773,-996.8377075195312,0.6593500971794128,8.918537139892578,-18.197389602661133
2187,1748,13.799117088317871,13.407690048217773,-996.8377075195312,0.6593500971794128,8.918537139892578,-18.197389602661133
2094,1748,13.799117088317871,13.407690048217773,-996.8377075195312,0.6593500971794128,8.918537139892578,-18.197389602661133
2111,1748,13.799117088317871,13.407690048217773,-996.8377075195312,0.6593500971794128,8.918537139892578,-18.197389602661133
2133,1748,13.799117088317871,13.407690048217773,-996.8377075195312,0.6593500971794128,8.918537139892578,-18.197389602661133
2118,1748,13.799117088317871,13.407690048217773,-996.8377075195312,0.6593500971794128,8.918537139892578,-18.197389602661133
2187,1749,4.590750694274902,0.01152573712170124,-1015.8991088867188,1.1047919988632202,0.968467116355896,-4.010668754577637
2202,1749,4.590750694274902,0.01152573712170124,-1015.8991088867188,1.1047919988632202,0.968467116355896,-4.010668754577637
2186,1749,4.590750694274902,0.01152573712170124,-1015.8991088867188,1.1047919988632202,0.968467116355896,-4.010668754577637
2192,1749,4.590750694274902,0.01152573712170124,-1015.8991088867188,1.1047919988632202,0.968467116355896,-4.010668754577637
2118,1749,4.590750694274902,0.01152573712170124,-1015.8991088867188,1.1047919988632202,0.968467116355896,-4.010668754577637
2133,1749,4.590750694274902,0.01152573712170124,-1015.8991088867188,1.1047919988632202,0.968467116355896,-4.010668754577637
2117,1749,4.590750694274902,0.01152573712170124,-1015.8991088867188,1.1047919988632202,0.968467116355896,-4.010668754577637
2123,1749,4.590750694274902,0.01152573712170124,-1015.8991088867188,1.1047919988632202,0.968467116355896,-4.010668754577637
2189,1750,18.3117733001709,17.599163055419922,-988.5233154296875,-0.2947026193141937,3.688871145248413,23.145557403564453
2177,1750,18.3117733001709,17.599163055419922,-988.5233154296875,-0.2947026193141937,3.688871145248413,23.145557403564453
2173,1750,18.3117733001709,17.599163055419922,-988.5233154296875,-0.2947026193141937,3.688871145248413,23.145557403564453
2197,1750,18.3117733001709,17.599163055419922,-988.5233154296875,-0.2947026193141937,3.688871145248413,23.145557403564453
2120,1750,18.3117733001709,17.599163055419922,-988.5233154296875,-0.2947026193141937,3.688871145248413,23.145557403564453
2108,1750,18.3117733001709,17.599163055419922,-988.5233154296875,-0.2947026193141937,3.688871145248413,23.145557403564453
2104,1750,18.3117733001709,17.599163055419922,-988.5233154296875,-0.2947026193141937,3.688871145248413,23.145557403564453
2128,1750,18.3117733001709,17.599163055419922,-988.5233154296875,-0.2947026193141937,3.688871145248413,23.145557403564453
2187,1751,1.6946309804916382,0.23108667135238647,-1024.830322265625,3.430478811264038,-2.977102756500244,-6.245522499084473
2192,1751,1.6946309804916382,0.23108667135238647,-1024.830322265625,3.430478811264038,-2.977102756500244,-6.245522499084473
2184,1751,1.6946309804916382,0.23108667135238647,-1024.830322265625,3.430478811264038,-2.977102756500244,-6.245522499084473
2201,1751,1.6946309804916382,0.23108667135238647,-1024.830322265625,3.430478811264038,-2.977102756500244,-6.245522499084473
2118,1751,1.6946309804916382,0.23108667135238647,-1024.830322265625,3.430478811264038,-2.977102756500244,-6.245522499084473
2123,1751,1.6946309804916382,0.23108667135238647,-1024.830322265625,3.430478811264038,-2.977102756500244,-6.245522499084473
2115,1751,1.6946309804916382,0.23108667135238647,-1024.830322265625,3.430478811264038,-2.977102756500244,-6.245522499084473
2132,1751,1.6946309804916382,0.23108667135238647,-1024.830322265625,3.430478811264038,-2.977102756500244,-6.245522499084473
2165,1752,15.139605522155762,11.947072982788086,-994.107177734375,1.2914800643920898,-5.553379535675049,-15.175064086914062
2196,1752,15.139605522155762,11.947072982788086,-994.107177734375,1.2914800643920898,-5.553379535675049,-15.175064086914062
2203,1752,15.139605522155762,11.947072982788086,-994.107177734375,1.2914800643920898,-5.553379535675049,-15.175064086914062
2186,1752,15.139605522155762,11.947072982788086,-994.107177734375,1.2914800643920898,-5.553379535675049,-15.175064086914062
2096,1752,15.139605522155762,11.947072982788086,-994.107177734375,1.2914800643920898,-5.553379535675049,-15.175064086914062
2127,1752,15.139605522155762,11.947072982788086,-994.107177734375,1.2914800643920898,-5.553379535675049,-15.175064086914062
2134,1752,15.139605522155762,11.947072982788086,-994.107177734375,1.2914800643920898,-5.553379535675049,-15.175064086914062
2117,1752,15.139605522155762,11.947072982788086,-994.107177734375,1.2914800643920898,-5.553379535675049,-15.175064086914062
2207,1753,3.6858155727386475,-2.8643743991851807,-1024.5081787109375,-0.17813673615455627,1.616104245185852,4.9336771965026855
2189,1753,3.6858155727386475,-2.8643743991851807,-1024.5081787109375,-0.17813673615455627,1.616104245185852,4.9336771965026855
2174,1753,3.6858155727386475,-2.8643743991851807,-1024.5081787109375,-0.17813673615455627,1.616104245185852,4.9336771965026855
2195,1753,3.6858155727386475,-2.8643743991851807,-1024.5081787109375,-0.17813673615455627,1.616104245185852,4.9336771965026855
2138,1753,3.6858155727386475,-2.8643743991851807,-1024.5081787109375,-0.17813673615455627,1.616104245185852,4.9336771965026855
2120,1753,3.6858155727386475,-2.8643743991851807,-1024.5081787109375,-0.17813673615455627,1.616104245185852,4.9336771965026855
2105,1753,3.6858155727386475,-2.8643743991851807,-1024.5081787109375,-0.17813673615455627,1.616104245185852,4.9336771965026855
2126,1753,3.6858155727386475,-2.8643743991851807,-1024.5081787109375,-0.17813673615455627,1.616104245185852,4.9336771965026855
2183,1754,0.976040780544281,4.336964130401611,-1013.720703125,0.23553848266601562,-2.5332682132720947,1.0308500528335571
2205,1754,0.976040780544281,4.336964130401611,-1013.720703125,0.23553848266601562,-2.5332682132720947,1.0308500528335571
2190,1754,0.976040780544281,4.336964130401611,-1013.720703125,0.23553848266601562,-2.5332682132720947,1.0308500528335571
2194,1754,0.976040780544281,4.336964130401611,-1013.720703125,0.23553848266601562,-2.5332682132720947,1.0308500528335571
2114,1754,0.976040780544281,4.336964130401611,-1013.720703125,0.23553848266601562,-2.5332682132720947,1.0308500528335571
2136,1754,0.976040780544281,4.336964130401611,-1013.720703125,0.23553848266601562,-2.5332682132720947,1.0308500528335571
2121,1754,0.976040780544281,4.336964130401611,-1013.720703125,0.23553848266601562,-2.5332682132720947,1.0308500528335571
2125,1754,0.976040780544281,4.336964130401611,-1013.720703125,0.23553848266601562,-2.5332682132720947,1.0308500528335571
2206,1755,11.611592292785645,14.238367080688477,-1006.3858642578125,2.1024978160858154,-16.175315856933594,12.22715950012207
2178,1755,11.611592292785645,14.238367080688477,-1006.3858642578125,2.1024978160858154,-16.175315856933594,12.22715950012207
2171,1755,11.611592292785645,14.238367080688477,-1006.3858642578125,2.1024978160858154,-16.175315856933594,12.22715950012207
2185,1755,11.611592292785645,14.238367080688477,-1006.3858642578125,2.1024978160858154,-16.175315856933594,12.22715950012207
2137,1755,11.611592292785645,14.238367080688477,-1006.3858642578125,2.1024978160858154,-16.175315856933594,12.22715950012207
2109,1755,11.611592292785645,14.238367080688477,-1006.3858642578125,2.1024978160858154,-16.175315856933594,12.22715950012207
2102,1755,11.611592292785645,14.238367080688477,-1006.3858642578125,2.1024978160858154,-16.175315856933594,12.22715950012207
2116,1755,11.611592292785645,14.238367080688477,-1006.3858642578125,2.1024978160858154,-16.175315856933594,12.22715950012207
2195,1756,7.679656505584717,7.7605180740356445,-1019.1986083984375,2.7735610008239746,-5.304130554199219,8.869865417480469
2194,1756,7.679656505584717,7.7605180740356445,-1019.1986083984375,2.7735610008239746,-5.304130554199219,8.869865417480469
2185,1756,7.679656505584717,7.7605180740356445,-1019.1986083984375,2.7735610008239746,-5.304130554199219,8.869865417480469
2207,1756,7.679656505584717,7.7605180740356445,-1019.1986083984375,2.7735610008239746,-5.304130554199219,8.869865417480469
2126,1756,7.679656505584717,7.7605180740356445,-1019.1986083984375,2.7735610008239746,-5.304130554199219,8.869865417480469
2125,1756,7.679656505584717,7.7605180740356445,-1019.1986083984375,2.7735610008239746,-5.304130554199219,8.869865417480469
2116,1756,7.679656505584717,7.7605180740356445,-1019.1986083984375,2.7735610008239746,-5.304130554199219,8.869865417480469
2138,1756,7.679656505584717,7.7605180740356445,-1019.1986083984375,2.7735610008239746,-5.304130554199219,8.869865417480469
2195,1757,16.483203887939453,15.483428001403809,-1017.8970336914062,0.5896586179733276,15.40993595123291,0.3106424808502197
2200,1757,16.483203887939453,15.483428001403809,-1017.8970336914062,0.5896586179733276,15.40993595123291,0.3106424808502197
2193,1757,16.483203887939453,15.483428001403809,-1017.8970336914062,0.5896586179733276,15.40993595123291,0.3106424808502197
2192,1757,16.483203887939453,15.483428001403809,-1017.8970336914062,0.5896586179733276,15.40993595123291,0.3106424808502197
2126,1757,16.483203887939453,15.483428001403809,-1017.8970336914062,0.5896586179733276,15.40993595123291,0.3106424808502197
2131,1757,16.483203887939453,15.483428001403809,-1017.8970336914062,0.5896586179733276,15.40993595123291,0.3106424808502197
2124,1757,16.483203887939453,15.483428001403809,-1017.8970336914062,0.5896586179733276,15.40993595123291,0.3106424808502197
2123,1757,16.483203887939453,15.483428001403809,-1017.8970336914062,0.5896586179733276,15.40993595123291,0.3106424808502197
2185,1758,-0.3431386649608612,2.789517641067505,-1022.2547607421875,1.8596125841140747,-7.669162750244141,-6.378870487213135
2194,1758,-0.3431386649608612,2.789517641067505,-1022.2547607421875,1.8596125841140747,-7.669162750244141,-6.378870487213135
2190,1758,-0.3431386649608612,2.789517641067505,-1022.2547607421875,1.8596125841140747,-7.669162750244141,-6.378870487213135
2206,1758,-0.3431386649608612,2.789517641067505,-1022.2547607421875,1.8596125841140747,-7.669162750244141,-6.378870487213135
2116,1758,-0.3431386649608612,2.789517641067505,-1022.2547607421875,1.8596125841140747,-7.669162750244141,-6.378870487213135
2125,1758,-0.3431386649608612,2.789517641067505,-1022.2547607421875,1.8596125841140747,-7.669162750244141,-6.378870487213135
2121,1758,-0.3431386649608612,2.789517641067505,-1022.2547607421875,1.8596125841140747,-7.669162750244141,-6.378870487213135
2137,1758,-0.3431386649608612,2.789517641067505,-1022.2547607421875,1.8596125841140747,-7.669162750244141,-6.378870487213135
2196,1759,2.06227970123291,-1.6919887065887451,-988.5357055664062,-6.7546210289001465,-1.5891941785812378,-3.0482308864593506
2150,1759,2.06227970123291,-1.6919887065887451,-988.5357055664062,-6.7546210289001465,-1.5891941785812378,-3.0482308864593506
2149,1759,2.06227970123291,-1.6919887065887451,-988.5357055664062,-6.7546210289001465,-1.5891941785812378,-3.0482308864593506
2166,1759,2.06227970123291,-1.6919887065887451,-988.5357055664062,-6.7546210289001465,-1.5891941785812378,-3.0482308864593506
2127,1759,2.06227970123291,-1.6919887065887451,-988.5357055664062,-6.7546210289001465,-1.5891941785812378,-3.0482308864593506
2081,1759,2.06227970123291,-1.6919887065887451,-988.5357055664062,-6.7546210289001465,-1.5891941785812378,-3.0482308864593506
2080,1759,2.06227970123291,-1.6919887065887451,-988.5357055664062,-6.7546210289001465,-1.5891941785812378,-3.0482308864593506
2097,1759,2.06227970123291,-1.6919887065887451,-988.5357055664062,-6.7546210289001465,-1.5891941785812378,-3.0482308864593506
2198,1760,0.12159156799316406,2.731503486633301,-989.934326171875,-5.860630512237549,3.926798105239868,2.8357205390930176
2141,1760,0.12159156799316406,2.731503486633301,-989.934326171875,-5.860630512237549,3.926798105239868,2.8357205390930176
2156,1760,0.12159156799316406,2.731503486633301,-989.934326171875,-5.860630512237549,3.926798105239868,2.8357205390930176
2176,1760,0.12159156799316406,2.731503486633301,-989.934326171875,-5.860630512237549,3.926798105239868,2.8357205390930176
2129,1760,0.12159156799316406,2.731503486633301,-989.934326171875,-5.860630512237549,3.926798105239868,2.8357205390930176
2072,1760,0.12159156799316406,2.731503486633301,-989.934326171875,-5.860630512237549,3.926798105239868,2.8357205390930176
2087,1760,0.12159156799316406,2.731503486633301,-989.934326171875,-5.860630512237549,3.926798105239868,2.8357205390930176
2107,1760,0.12159156799316406,2.731503486633301,-989.934326171875,-5.860630512237549,3.926798105239868,2.8357205390930176
2175,1761,12.424288749694824,11.937339782714844,-1008.2838745117188,-0.7723819017410278,17.309043884277344,4.765931129455566
2199,1761,12.424288749694824,11.937339782714844,-1008.2838745117188,-0.7723819017410278,17.309043884277344,4.765931129455566
2188,1761,12.424288749694824,11.937339782714844,-1008.2838745117188,-0.7723819017410278,17.309043884277344,4.765931129455566
2176,1761,12.424288749694824,11.937339782714844,-1008.2838745117188,-0.7723819017410278,17.309043884277344,4.765931129455566
2106,1761,12.424288749694824,11.937339782714844,-1008.2838745117188,-0.7723819017410278,17.309043884277344,4.765931129455566
2130,1761,12.424288749694824,11.937339782714844,-1008.2838745117188,-0.7723819017410278,17.309043884277344,4.765931129455566
2119,1761,12.424288749694824,11.937339782714844,-1008.2838745117188,-0.7723819017410278,17.309043884277344,4.765931129455566
2107,1761,12.424288749694824,11.937339782714844,-1008.2838745117188,-0.7723819017410278,17.309043884277344,4.765931129455566
2199,1762,-7.457180500030518,0.5233700275421143,-1028.442138671875,1.6787790060043335,-0.5004313588142395,3.9637787342071533
2182,1762,-7.457180500030518,0.5233700275421143,-1028.442138671875,1.6787790060043335,-0.5004313588142395,3.9637787342071533
2208,1762,-7.457180500030518,0.5233700275421143,-1028.442138671875,1.6787790060043335,-0.5004313588142395,3.9637787342071533
2193,1762,-7.457180500030518,0.5233700275421143,-1028.442138671875,1.6787790060043335,-0.5004313588142395,3.9637787342071533
2130,1762,-7.457180500030518,0.5233700275421143,-1028.442138671875,1.6787790060043335,-0.5004313588142395,3.9637787342071533
2113,1762,-7.457180500030518,0.5233700275421143,-1028.442138671875,1.6787790060043335,-0.5004313588142395,3.9637787342071533
2139,1762,-7.457180500030518,0.5233700275421143,-1028.442138671875,1.6787790060043335,-0.5004313588142395,3.9637787342071533
2124,1762,-7.457180500030518,0.5233700275421143,-1028.442138671875,1.6787790060043335,-0.5004313588142395,3.9637787342071533
2201,1763,16.076374053955078,12.899779319763184,-990.2163696289062,-0.917646586894989,9.729736328125,-16.073646545410156
2162,1763,16.076374053955078,12.899779319763184,-990.2163696289062,-0.917646586894989,9.729736328125,-16.073646545410156
2163,1763,16.076374053955078,12.899779319763184,-990.2163696289062,-0.917646586894989,9.729736328125,-16.073646545410156
2187,1763,16.076374053955078,12.899779319763184,-990.2163696289062,-0.917646586894989,9.729736328125,-16.073646545410156
2132,1763,16.076374053955078,12.899779319763184,-990.2163696289062,-0.917646586894989,9.729736328125,-16.073646545410156
2093,1763,16.076374053955078,12.899779319763184,-990.2163696289062,-0.917646586894989,9.729736328125,-16.073646545410156
2094,1763,16.076374053955078,12.899779319763184,-990.2163696289062,-0.917646586894989,9.729736328125,-16.073646545410156
2118,1763,16.076374053955078,12.899779319763184,-990.2163696289062,-0.917646586894989,9.729736328125,-16.073646545410156
2202,1764,14.199952125549316,12.072163581848145,-998.2930908203125,0.21357016265392303,-2.217618465423584,-19.235902786254883
2180,1764,14.199952125549316,12.072163581848145,-998.2930908203125,0.21357016265392303,-2.217618465423584,-19.235902786254883
2165,1764,14.199952125549316,12.072163581848145,-998.2930908203125,0.21357016265392303,-2.217618465423584,-19.235902786254883
2186,1764,14.199952125549316,12.072163581848145,-998.2930908203125,0.21357016265392303,-2.217618465423584,-19.235902786254883
2133,1764,14.199952125549316,12.072163581848145,-998.2930908203125,0.21357016265392303,-2.217618465423584,-19.235902786254883
2111,1764,14.199952125549316,12.072163581848145,-998.2930908203125,0.21357016265392303,-2.217618465423584,-19.235902786254883
2096,1764,14.199952125549316,12.072163581848145,-998.2930908203125,0.21357016265392303,-2.217618465423584,-19.235902786254883
2117,1764,14.199952125549316,12.072163581848145,-998.2930908203125,0.21357016265392303,-2.217618465423584,-19.235902786254883
2204,1765,12.776350021362305,15.942655563354492,-999.2103271484375,1.2719956636428833,-16.643571853637695,-8.475234985351562
2179,1765,12.776350021362305,15.942655563354492,-999.2103271484375,1.2719956636428833,-16.643571853637695,-8.475234985351562
2168,1765,12.776350021362305,15.942655563354492,-999.2103271484375,1.2719956636428833,-16.643571853637695,-8.475234985351562
2183,1765,12.776350021362305,15.942655563354492,-999.2103271484375,1.2719956636428833,-16.643571853637695,-8.475234985351562
2135,1765,12.776350021362305,15.942655563354492,-999.2103271484375,1.2719956636428833,-16.643571853637695,-8.475234985351562
2110,1765,12.776350021362305,15.942655563354492,-999.2103271484375,1.2719956636428833,-16.643571853637695,-8.475234985351562
2099,1765,12.776350021362305,15.942655563354492,-999.2103271484375,1.2719956636428833,-16.643571853637695,-8.475234985351562
2114,1765,12.776350021362305,15.942655563354492,-999.2103271484375,1.2719956636428833,-16.643571853637695,-8.475234985351562
2205,1766,12.784049987792969,14.057000160217285,-999.3157958984375,1.4345089197158813,-20.495370864868164,4.813658714294434
2169,1766,12.784049987792969,14.057000160217285,-999.3157958984375,1.4345089197158813,-20.495370864868164,4.813658714294434
2170,1766,12.784049987792969,14.057000160217285,-999.3157958984375,1.4345089197158813,-20.495370864868164,4.813658714294434
2190,1766,12.784049987792969,14.057000160217285,-999.3157958984375,1.4345089197158813,-20.495370864868164,4.813658714294434
2136,1766,12.784049987792969,14.057000160217285,-999.3157958984375,1.4345089197158813,-20.495370864868164,4.813658714294434
2100,1766,12.784049987792969,14.057000160217285,-999.3157958984375,1.4345089197158813,-20.495370864868164,4.813658714294434
2101,1766,12.784049987792969,14.057000160217285,-999.3157958984375,1.4345089197158813,-20.495370864868164,4.813658714294434
2121,1766,12.784049987792969,14.057000160217285,-999.3157958984375,1.4345089197158813,-20.495370864868164,4.813658714294434
2207,1767,10.722932815551758,8.124248504638672,-1004.7879028320312,-1.0951690673828125,-7.336316108703613,11.224875450134277
2172,1767,10.722932815551758,8.124248504638672,-1004.7879028320312,-1.0951690673828125,-7.336316108703613,11.224875450134277
2177,1767,10.722932815551758,8.124248504638672,-1004.7879028320312,-1.0951690673828125,-7.336316108703613,11.224875450134277
2189,1767,10.722932815551758,8.124248504638672,-1004.7879028320312,-1.0951690673828125,-7.336316108703613,11.224875450134277
2138,1767,10.722932815551758,8.124248504638672,-1004.7879028320312,-1.0951690673828125,-7.336316108703613,11.224875450134277
2103,1767,10.722932815551758,8.124248504638672,-1004.7879028320312,-1.0951690673828125,-7.336316108703613,11.224875450134277
2108,1767,10.722932815551758,8.124248504638672,-1004.7879028320312,-1.0951690673828125,-7.336316108703613,11.224875450134277
2120,1767,10.722932815551758,8.124248504638672,-1004.7879028320312,-1.0951690673828125,-7.336316108703613,11.224875450134277
2232,1768,18.890064239501953,16.132625579833984,-971.5475463867188,0.8419229388237,3.8800644874572754,-11.714889526367188
2221,1768,18.890064239501953,16.132625579833984,-971.5475463867188,0.8419229388237,3.8800644874572754,-11.714889526367188
2220,1768,18.890064239501953,16.132625579833984,-971.5475463867188,0.8419229388237,3.8800644874572754,-11.714889526367188
2249,1768,18.890064239501953,16.132625579833984,-971.5475463867188,0.8419229388237,3.8800644874572754,-11.714889526367188
2163,1768,18.890064239501953,16.132625579833984,-971.5475463867188,0.8419229388237,3.8800644874572754,-11.714889526367188
2152,1768,18.890064239501953,16.132625579833984,-971.5475463867188,0.8419229388237,3.8800644874572754,-11.714889526367188
2151,1768,18.890064239501953,16.132625579833984,-971.5475463867188,0.8419229388237,3.8800644874572754,-11.714889526367188
2180,1768,18.890064239501953,16.132625579833984,-971.5475463867188,0.8419229388237,3.8800644874572754,-11.714889526367188
2249,1769,18.499420166015625,13.969437599182129,-971.9019165039062,-0.20157094299793243,-0.0021348297595977783,-11.187336921691895
2220,1769,18.499420166015625,13.969437599182129,-971.9019165039062,-0.20157094299793243,-0.0021348297595977783,-11.187336921691895
2229,1769,18.499420166015625,13.969437599182129,-971.9019165039062,-0.20157094299793243,-0.0021348297595977783,-11.187336921691895
2234,1769,18.499420166015625,13.969437599182129,-971.9019165039062,-0.20157094299793243,-0.0021348297595977783,-11.187336921691895
2180,1769,18.499420166015625,13.969437599182129,-971.9019165039062,-0.20157094299793243,-0.0021348297595977783,-11.187336921691895
2151,1769,18.499420166015625,13.969437599182129,-971.9019165039062,-0.20157094299793243,-0.0021348297595977783,-11.187336921691895
2160,1769,18.499420166015625,13.969437599182129,-971.9019165039062,-0.20157094299793243,-0.0021348297595977783,-11.187336921691895
2165,1769,18.499420166015625,13.969437599182129,-971.9019165039062,-0.20157094299793243,-0.0021348297595977783,-11.187336921691895
2230,1770,15.448857307434082,17.58662986755371,-970.4356689453125,2.1312308311462402,9.45919418334961,-3.8558712005615234
2250,1770,15.448857307434082,17.58662986755371,-970.4356689453125,2.1312308311462402,9.45919418334961,-3.8558712005615234
2233,1770,15.448857307434082,17.58662986755371,-970.4356689453125,2.1312308311462402,9.45919418334961,-3.8558712005615234
2223,1770,15.448857307434082,17.58662986755371,-970.4356689453125,2.1312308311462402,9.45919418334961,-3.8558712005615234
2161,1770,15.448857307434082,17.58662986755371,-970.4356689453125,2.1312308311462402,9.45919418334961,-3.8558712005615234
2181,1770,15.448857307434082,17.58662986755371,-970.4356689453125,2.1312308311462402,9.45919418334961,-3.8558712005615234
2164,1770,15.448857307434082,17.58662986755371,-970.4356689453125,2.1312308311462402,9.45919418334961,-3.8558712005615234
2154,1770,15.448857307434082,17.58662986755371,-970.4356689453125,2.1312308311462402,9.45919418334961,-3.8558712005615234
2221,1771,19.291196823120117,14.725733757019043,-969.8013305664062,1.3594436645507812,6.082014083862305,-9.6192045211792
2232,1771,19.291196823120117,14.725733757019043,-969.8013305664062,1.3594436645507812,6.082014083862305,-9.6192045211792
2231,1771,19.291196823120117,14.725733757019043,-969.8013305664062,1.3594436645507812,6.082014083862305,-9.6192045211792
2222,1771,19.291196823120117,14.725733757019043,-969.8013305664062,1.3594436645507812,6.082014083862305,-9.6192045211792
2152,1771,19.291196823120117,14.725733757019043,-969.8013305664062,1.3594436645507812,6.082014083862305,-9.6192045211792
2163,1771,19.291196823120117,14.725733757019043,-969.8013305664062,1.3594436645507812,6.082014083862305,-9.6192045211792
2162,1771,19.291196823120117,14.725733757019043,-969.8013305664062,1.3594436645507812,6.082014083862305,-9.6192045211792
2153,1771,19.291196823120117,14.725733757019043,-969.8013305664062,1.3594436645507812,6.082014083862305,-9.6192045211792
2260,1772,9.164731979370117,13.151667594909668,-1023.388671875,-2.4847350120544434,-25.853557586669922,-16.629436492919922
2273,1772,9.164731979370117,13.151667594909668,-1023.388671875,-2.4847350120544434,-25.853557586669922,-16.629436492919922
2252,1772,9.164731979370117,13.151667594909668,-1023.388671875,-2.4847350120544434,-25.853557586669922,-16.629436492919922
2263,1772,9.164731979370117,13.151667594909668,-1023.388671875,-2.4847350120544434,-25.853557586669922,-16.629436492919922
2191,1772,9.164731979370117,13.151667594909668,-1023.388671875,-2.4847350120544434,-25.853557586669922,-16.629436492919922
2204,1772,9.164731979370117,13.151667594909668,-1023.388671875,-2.4847350120544434,-25.853557586669922,-16.629436492919922
2183,1772,9.164731979370117,13.151667594909668,-1023.388671875,-2.4847350120544434,-25.853557586669922,-16.629436492919922
2194,1772,9.164731979370117,13.151667594909668,-1023.388671875,-2.4847350120544434,-25.853557586669922,-16.629436492919922
2276,1773,0.6122311949729919,-7.58277702331543,-1020.6989135742188,7.891641616821289,-10.721397399902344,9.661956787109375
2254,1773,0.6122311949729919,-7.58277702331543,-1020.6989135742188,7.891641616821289,-10.721397399902344,9.661956787109375
2240,1773,0.6122311949729919,-7.58277702331543,-1020.6989135742188,7.891641616821289,-10.721397399902344,9.661956787109375
2241,1773,0.6122311949729919,-7.58277702331543,-1020.6989135742188,7.891641616821289,-10.721397399902344,9.661956787109375
2207,1773,0.6122311949729919,-7.58277702331543,-1020.6989135742188,7.891641616821289,-10.721397399902344,9.661956787109375
2185,1773,0.6122311949729919,-7.58277702331543,-1020.6989135742188,7.891641616821289,-10.721397399902344,9.661956787109375
2171,1773,0.6122311949729919,-7.58277702331543,-1020.6989135742188,7.891641616821289,-10.721397399902344,9.661956787109375
2172,1773,0.6122311949729919,-7.58277702331543,-1020.6989135742188,7.891641616821289,-10.721397399902344,9.661956787109375
2264,1774,0.8734501004219055,3.0857856273651123,-1065.9984130859375,-0.46741917729377747,-3.2326934337615967,-5.348203182220459
2261,1774,0.8734501004219055,3.0857856273651123,-1065.9984130859375,-0.46741917729377747,-3.2326934337615967,-5.348203182220459
2260,1774,0.8734501004219055,3.0857856273651123,-1065.9984130859375,-0.46741917729377747,-3.2326934337615967,-5.348203182220459
2263,1774,0.8734501004219055,3.0857856273651123,-1065.9984130859375,-0.46741917729377747,-3.2326934337615967,-5.348203182220459
2195,1774,0.8734501004219055,3.0857856273651123,-1065.9984130859375,-0.46741917729377747,-3.2326934337615967,-5.348203182220459
2192,1774,0.8734501004219055,3.0857856273651123,-1065.9984130859375,-0.46741917729377747,-3.2326934337615967,-5.348203182220459
2191,1774,0.8734501004219055,3.0857856273651123,-1065.9984130859375,-0.46741917729377747,-3.2326934337615967,-5.348203182220459
2194,1774,0.8734501004219055,3.0857856273651123,-1065.9984130859375,-0.46741917729377747,-3.2326934337615967,-5.348203182220459
2255,1775,13.853392601013184,6.89106559753418,-1018.8936767578125,-0.9728948473930359,-13.77967357635498,-24.78968620300293
2272,1775,13.853392601013184,6.89106559753418,-1018.8936767578125,-0.9728948473930359,-13.77967357635498,-24.78968620300293
2260,1775,13.853392601013184,6.89106559753418,-1018.8936767578125,-0.9728948473930359,-13.77967357635498,-24.78968620300293
2261,1775,13.853392601013184,6.89106559753418,-1018.8936767578125,-0.9728948473930359,-13.77967357635498,-24.78968620300293
2186,1775,13.853392601013184,6.89106559753418,-1018.8936767578125,-0.9728948473930359,-13.77967357635498,-24.78968620300293
2203,1775,13.853392601013184,6.89106559753418,-1018.8936767578125,-0.9728948473930359,-13.77967357635498,-24.78968620300293
2191,1775,13.853392601013184,6.89106559753418,-1018.8936767578125,-0.9728948473930359,-13.77967357635498,-24.78968620300293
2192,1775,13.853392601013184,6.89106559753418,-1018.8936767578125,-0.9728948473930359,-13.77967357635498,-24.78968620300293
2235,1776,-2.4040980339050293,-2.485570192337036,-1012.2089233398438,-6.378118991851807,-11.186805725097656,-8.950872421264648
2248,1776,-2.4040980339050293,-2.485570192337036,-1012.2089233398438,-6.378118991851807,-11.186805725097656,-8.950872421264648
2273,1776,-2.4040980339050293,-2.485570192337036,-1012.2089233398438,-6.378118991851807,-11.186805725097656,-8.950872421264648
2260,1776,-2.4040980339050293,-2.485570192337036,-1012.2089233398438,-6.378118991851807,-11.186805725097656,-8.950872421264648
2166,1776,-2.4040980339050293,-2.485570192337036,-1012.2089233398438,-6.378118991851807,-11.186805725097656,-8.950872421264648
2179,1776,-2.4040980339050293,-2.485570192337036,-1012.2089233398438,-6.378118991851807,-11.186805725097656,-8.950872421264648
2204,1776,-2.4040980339050293,-2.485570192337036,-1012.2089233398438,-6.378118991851807,-11.186805725097656,-8.950872421264648
2191,1776,-2.4040980339050293,-2.485570192337036,-1012.2089233398438,-6.378118991851807,-11.186805725097656,-8.950872421264648
2275,1777,-10.82689380645752,-2.788210868835449,-1013.2474365234375,10.835931777954102,-8.496418952941895,-0.06890668720006943
2259,1777,-10.82689380645752,-2.788210868835449,-1013.2474365234375,10.835931777954102,-8.496418952941895,-0.06890668720006943
2239,1777,-10.82689380645752,-2.788210868835449,-1013.2474365234375,10.835931777954102,-8.496418952941895,-0.06890668720006943
2247,1777,-10.82689380645752,-2.788210868835449,-1013.2474365234375,10.835931777954102,-8.496418952941895,-0.06890668720006943
2206,1777,-10.82689380645752,-2.788210868835449,-1013.2474365234375,10.835931777954102,-8.496418952941895,-0.06890668720006943
2190,1777,-10.82689380645752,-2.788210868835449,-1013.2474365234375,10.835931777954102,-8.496418952941895,-0.06890668720006943
2170,1777,-10.82689380645752,-2.788210868835449,-1013.2474365234375,10.835931777954102,-8.496418952941895,-0.06890668720006943
2178,1777,-10.82689380645752,-2.788210868835449,-1013.2474365234375,10.835931777954102,-8.496418952941895,-0.06890668720006943
2269,1778,10.620828628540039,7.591844081878662,-1034.0220947265625,-0.30891692638397217,19.753690719604492,12.552295684814453
2264,1778,10.620828628540039,7.591844081878662,-1034.0220947265625,-0.30891692638397217,19.753690719604492,12.552295684814453
2243,1778,10.620828628540039,7.591844081878662,-1034.0220947265625,-0.30891692638397217,19.753690719604492,12.552295684814453
2257,1778,10.620828628540039,7.591844081878662,-1034.0220947265625,-0.30891692638397217,19.753690719604492,12.552295684814453
2200,1778,10.620828628540039,7.591844081878662,-1034.0220947265625,-0.30891692638397217,19.753690719604492,12.552295684814453
2195,1778,10.620828628540039,7.591844081878662,-1034.0220947265625,-0.30891692638397217,19.753690719604492,12.552295684814453
2174,1778,10.620828628540039,7.591844081878662,-1034.0220947265625,-0.30891692638397217,19.753690719604492,12.552295684814453
2188,1778,10.620828628540039,7.591844081878662,-1034.0220947265625,-0.30891692638397217,19.753690719604492,12.552295684814453
2243,1779,5.166952610015869,-5.849942684173584,-1005.5291748046875,-6.4035797119140625,2.049105405807495,17.05364418029785
2258,1779,5.166952610015869,-5.849942684173584,-1005.5291748046875,-6.4035797119140625,2.049105405807495,17.05364418029785
2266,1779,5.166952610015869,-5.849942684173584,-1005.5291748046875,-6.4035797119140625,2.049105405807495,17.05364418029785
2267,1779,5.166952610015869,-5.849942684173584,-1005.5291748046875,-6.4035797119140625,2.049105405807495,17.05364418029785
2174,1779,5.166952610015869,-5.849942684173584,-1005.5291748046875,-6.4035797119140625,2.049105405807495,17.05364418029785
2189,1779,5.166952610015869,-5.849942684173584,-1005.5291748046875,-6.4035797119140625,2.049105405807495,17.05364418029785
2197,1779,5.166952610015869,-5.849942684173584,-1005.5291748046875,-6.4035797119140625,2.049105405807495,17.05364418029785
2198,1779,5.166952610015869,-5.849942684173584,-1005.5291748046875,-6.4035797119140625,2.049105405807495,17.05364418029785
2250,1780,-6.397078990936279,-3.204909086227417,-1003.373779296875,7.250532627105713,3.801243782043457,-6.665367603302002
2231,1780,-6.397078990936279,-3.204909086227417,-1003.373779296875,7.250532627105713,3.801243782043457,-6.665367603302002
2270,1780,-6.397078990936279,-3.204909086227417,-1003.373779296875,7.250532627105713,3.801243782043457,-6.665367603302002
2253,1780,-6.397078990936279,-3.204909086227417,-1003.373779296875,7.250532627105713,3.801243782043457,-6.665367603302002
2181,1780,-6.397078990936279,-3.204909086227417,-1003.373779296875,7.250532627105713,3.801243782043457,-6.665367603302002
2162,1780,-6.397078990936279,-3.204909086227417,-1003.373779296875,7.250532627105713,3.801243782043457,-6.665367603302002
2201,1780,-6.397078990936279,-3.204909086227417,-1003.373779296875,7.250532627105713,3.801243782043457,-6.665367603302002
2184,1780,-6.397078990936279,-3.204909086227417,-1003.373779296875,7.250532627105713,3.801243782043457,-6.665367603302002
2277,1781,-12.550605773925781,1.7000592947006226,-1011.938232421875,6.737630844116211,10.548471450805664,-6.762144088745117
2233,1781,-12.550605773925781,1.7000592947006226,-1011.938232421875,6.737630844116211,10.548471450805664,-6.762144088745117
2250,1781,-12.550605773925781,1.7000592947006226,-1011.938232421875,6.737630844116211,10.548471450805664,-6.762144088745117
2253,1781,-12.550605773925781,1.7000592947006226,-1011.938232421875,6.737630844116211,10.548471450805664,-6.762144088745117
2208,1781,-12.550605773925781,1.7000592947006226,-1011.938232421875,6.737630844116211,10.548471450805664,-6.762144088745117
2164,1781,-12.550605773925781,1.7000592947006226,-1011.938232421875,6.737630844116211,10.548471450805664,-6.762144088745117
2181,1781,-12.550605773925781,1.7000592947006226,-1011.938232421875,6.737630844116211,10.548471450805664,-6.762144088745117
2184,1781,-12.550605773925781,1.7000592947006226,-1011.938232421875,6.737630844116211,10.548471450805664,-6.762144088745117
2237,1782,-15.129435539245605,3.154062032699585,-1005.0482177734375,-1.886910319328308,-8.436602592468262,-1.2766977548599243
2238,1782,-15.129435539245605,3.154062032699585,-1005.0482177734375,-1.886910319328308,-8.436602592468262,-1.2766977548599243
2274,1782,-15.129435539245605,3.154062032699585,-1005.0482177734375,-1.886910319328308,-8.436602592468262,-1.2766977548599243
2252,1782,-15.129435539245605,3.154062032699585,-1005.0482177734375,-1.886910319328308,-8.436602592468262,-1.2766977548599243
2168,1782,-15.129435539245605,3.154062032699585,-1005.0482177734375,-1.886910319328308,-8.436602592468262,-1.2766977548599243
2169,1782,-15.129435539245605,3.154062032699585,-1005.0482177734375,-1.886910319328308,-8.436602592468262,-1.2766977548599243
2205,1782,-15.129435539245605,3.154062032699585,-1005.0482177734375,-1.886910319328308,-8.436602592468262,-1.2766977548599243
2183,1782,-15.129435539245605,3.154062032699585,-1005.0482177734375,-1.886910319328308,-8.436602592468262,-1.2766977548599243
2222,1783,16.95978546142578,15.513823509216309,-972.6619262695312,2.586219072341919,10.053359985351562,-7.954712390899658
2231,1783,16.95978546142578,15.513823509216309,-972.6619262695312,2.586219072341919,10.053359985351562,-7.954712390899658
2250,1783,16.95978546142578,15.513823509216309,-972.6619262695312,2.586219072341919,10.053359985351562,-7.954712390899658
2230,1783,16.95978546142578,15.513823509216309,-972.6619262695312,2.586219072341919,10.053359985351562,-7.954712390899658
2153,1783,16.95978546142578,15.513823509216309,-972.6619262695312,2.586219072341919,10.053359985351562,-7.954712390899658
2162,1783,16.95978546142578,15.513823509216309,-972.6619262695312,2.586219072341919,10.053359985351562,-7.954712390899658
2181,1783,16.95978546142578,15.513823509216309,-972.6619262695312,2.586219072341919,10.053359985351562,-7.954712390899658
2161,1783,16.95978546142578,15.513823509216309,-972.6619262695312,2.586219072341919,10.053359985351562,-7.954712390899658
2219,1784,17.46247100830078,10.498493194580078,-972.1722412109375,-0.7038227319717407,-3.069441080093384,-11.399205207824707
2265,1784,17.46247100830078,10.498493194580078,-972.1722412109375,-0.7038227319717407,-3.069441080093384,-11.399205207824707
2234,1784,17.46247100830078,10.498493194580078,-972.1722412109375,-0.7038227319717407,-3.069441080093384,-11.399205207824707
2229,1784,17.46247100830078,10.498493194580078,-972.1722412109375,-0.7038227319717407,-3.069441080093384,-11.399205207824707
2150,1784,17.46247100830078,10.498493194580078,-972.1722412109375,-0.7038227319717407,-3.069441080093384,-11.399205207824707
2196,1784,17.46247100830078,10.498493194580078,-972.1722412109375,-0.7038227319717407,-3.069441080093384,-11.399205207824707
2165,1784,17.46247100830078,10.498493194580078,-972.1722412109375,-0.7038227319717407,-3.069441080093384,-11.399205207824707
2160,1784,17.46247100830078,10.498493194580078,-972.1722412109375,-0.7038227319717407,-3.069441080093384,-11.399205207824707
2235,1785,13.999030113220215,17.612932205200195,-974.6765747070312,-2.548635244369507,-8.717057228088379,-7.622359275817871
2218,1785,13.999030113220215,17.612932205200195,-974.6765747070312,-2.548635244369507,-8.717057228088379,-7.622359275817871
2228,1785,13.999030113220215,17.612932205200195,-974.6765747070312,-2.548635244369507,-8.717057228088379,-7.622359275817871
2248,1785,13.999030113220215,17.612932205200195,-974.6765747070312,-2.548635244369507,-8.717057228088379,-7.622359275817871
2166,1785,13.999030113220215,17.612932205200195,-974.6765747070312,-2.548635244369507,-8.717057228088379,-7.622359275817871
2149,1785,13.999030113220215,17.612932205200195,-974.6765747070312,-2.548635244369507,-8.717057228088379,-7.622359275817871
2159,1785,13.999030113220215,17.612932205200195,-974.6765747070312,-2.548635244369507,-8.717057228088379,-7.622359275817871
2179,1785,13.999030113220215,17.612932205200195,-974.6765747070312,-2.548635244369507,-8.717057228088379,-7.622359275817871
2236,1786,12.519241333007812,17.71209716796875,-973.205810546875,0.6323390007019043,12.092572212219238,-2.7925291061401367
2224,1786,12.519241333007812,17.71209716796875,-973.205810546875,0.6323390007019043,12.092572212219238,-2.7925291061401367
2223,1786,12.519241333007812,17.71209716796875,-973.205810546875,0.6323390007019043,12.092572212219238,-2.7925291061401367
2233,1786,12.519241333007812,17.71209716796875,-973.205810546875,0.6323390007019043,12.092572212219238,-2.7925291061401367
2167,1786,12.519241333007812,17.71209716796875,-973.205810546875,0.6323390007019043,12.092572212219238,-2.7925291061401367
2155,1786,12.519241333007812,17.71209716796875,-973.205810546875,0.6323390007019043,12.092572212219238,-2.7925291061401367
2154,1786,12.519241333007812,17.71209716796875,-973.205810546875,0.6323390007019043,12.092572212219238,-2.7925291061401367
2164,1786,12.519241333007812,17.71209716796875,-973.205810546875,0.6323390007019043,12.092572212219238,-2.7925291061401367
2248,1787,14.325788497924805,18.36921501159668,-973.3308715820312,-0.7019516229629517,-11.024382591247559,-4.646582126617432
2228,1787,14.325788497924805,18.36921501159668,-973.3308715820312,-0.7019516229629517,-11.024382591247559,-4.646582126617432
2217,1787,14.325788497924805,18.36921501159668,-973.3308715820312,-0.7019516229629517,-11.024382591247559,-4.646582126617432
2237,1787,14.325788497924805,18.36921501159668,-973.3308715820312,-0.7019516229629517,-11.024382591247559,-4.646582126617432
2179,1787,14.325788497924805,18.36921501159668,-973.3308715820312,-0.7019516229629517,-11.024382591247559,-4.646582126617432
2159,1787,14.325788497924805,18.36921501159668,-973.3308715820312,-0.7019516229629517,-11.024382591247559,-4.646582126617432
2148,1787,14.325788497924805,18.36921501159668,-973.3308715820312,-0.7019516229629517,-11.024382591247559,-4.646582126617432
2168,1787,14.325788497924805,18.36921501159668,-973.3308715820312,-0.7019516229629517,-11.024382591247559,-4.646582126617432
2272,1788,-1.0750174522399902,-3.7966928482055664,-1010.9815063476562,-5.526096343994141,-7.266506671905518,-11.500080108642578
2265,1788,-1.0750174522399902,-3.7966928482055664,-1010.9815063476562,-5.526096343994141,-7.266506671905518,-11.500080108642578
2235,1788,-1.0750174522399902,-3.7966928482055664,-1010.9815063476562,-5.526096343994141,-7.266506671905518,-11.500080108642578
2260,1788,-1.0750174522399902,-3.7966928482055664,-1010.9815063476562,-5.526096343994141,-7.266506671905518,-11.500080108642578
2203,1788,-1.0750174522399902,-3.7966928482055664,-1010.9815063476562,-5.526096343994141,-7.266506671905518,-11.500080108642578
2196,1788,-1.0750174522399902,-3.7966928482055664,-1010.9815063476562,-5.526096343994141,-7.266506671905518,-11.500080108642578
2166,1788,-1.0750174522399902,-3.7966928482055664,-1010.9815063476562,-5.526096343994141,-7.266506671905518,-11.500080108642578
2191,1788,-1.0750174522399902,-3.7966928482055664,-1010.9815063476562,-5.526096343994141,-7.266506671905518,-11.500080108642578
2237,1789,16.58237648010254,19.47641372680664,-971.3241577148438,-0.28038260340690613,-10.530718803405762,-1.4258267879486084
2217,1789,16.58237648010254,19.47641372680664,-971.3241577148438,-0.28038260340690613,-10.530718803405762,-1.4258267879486084
2216,1789,16.58237648010254,19.47641372680664,-971.3241577148438,-0.28038260340690613,-10.530718803405762,-1.4258267879486084
2238,1789,16.58237648010254,19.47641372680664,-971.3241577148438,-0.28038260340690613,-10.530718803405762,-1.4258267879486084
2168,1789,16.58237648010254,19.47641372680664,-971.3241577148438,-0.28038260340690613,-10.530718803405762,-1.4258267879486084
2148,1789,16.58237648010254,19.47641372680664,-971.3241577148438,-0.28038260340690613,-10.530718803405762,-1.4258267879486084
2147,1789,16.58237648010254,19.47641372680664,-971.3241577148438,-0.28038260340690613,-10.530718803405762,-1.4258267879486084
2169,1789,16.58237648010254,19.47641372680664,-971.3241577148438,-0.28038260340690613,-10.530718803405762,-1.4258267879486084
2238,1790,16.370264053344727,19.114206314086914,-971.7822875976562,0.4609532356262207,-12.193343162536621,1.778152346611023
2216,1790,16.370264053344727,19.114206314086914,-971.7822875976562,0.4609532356262207,-12.193343162536621,1.778152346611023
2215,1790,16.370264053344727,19.114206314086914,-971.7822875976562,0.4609532356262207,-12.193343162536621,1.778152346611023
2239,1790,16.370264053344727,19.114206314086914,-971.7822875976562,0.4609532356262207,-12.193343162536621,1.778152346611023
2169,1790,16.370264053344727,19.114206314086914,-971.7822875976562,0.4609532356262207,-12.193343162536621,1.778152346611023
2147,1790,16.370264053344727,19.114206314086914,-971.7822875976562,0.4609532356262207,-12.193343162536621,1.778152346611023
2146,1790,16.370264053344727,19.114206314086914,-971.7822875976562,0.4609532356262207,-12.193343162536621,1.778152346611023
2170,1790,16.370264053344727,19.114206314086914,-971.7822875976562,0.4609532356262207,-12.193343162536621,1.778152346611023
2269,1791,11.655962944030762,8.0066499710083,-1029.833984375,-1.1238056421279907,25.6459903717041,12.339438438415527
2257,1791,11.655962944030762,8.0066499710083,-1029.833984375,-1.1238056421279907,25.6459903717041,12.339438438415527
2268,1791,11.655962944030762,8.0066499710083,-1029.833984375,-1.1238056421279907,25.6459903717041,12.339438438415527
2262,1791,11.655962944030762,8.0066499710083,-1029.833984375,-1.1238056421279907,25.6459903717041,12.339438438415527
2200,1791,11.655962944030762,8.0066499710083,-1029.833984375,-1.1238056421279907,25.6459903717041,12.339438438415527
2188,1791,11.655962944030762,8.0066499710083,-1029.833984375,-1.1238056421279907,25.6459903717041,12.339438438415527
2199,1791,11.655962944030762,8.0066499710083,-1029.833984375,-1.1238056421279907,25.6459903717041,12.339438438415527
2193,1791,11.655962944030762,8.0066499710083,-1029.833984375,-1.1238056421279907,25.6459903717041,12.339438438415527
2224,1792,13.160505294799805,17.708694458007812,-971.5392456054688,-1.5555123090744019,10.921883583068848,1.7867984771728516
2236,1792,13.160505294799805,17.708694458007812,-971.5392456054688,-1.5555123090744019,10.921883583068848,1.7867984771728516
2244,1792,13.160505294799805,17.708694458007812,-971.5392456054688,-1.5555123090744019,10.921883583068848,1.7867984771728516
2209,1792,13.160505294799805,17.708694458007812,-971.5392456054688,-1.5555123090744019,10.921883583068848,1.7867984771728516
2155,1792,13.160505294799805,17.708694458007812,-971.5392456054688,-1.5555123090744019,10.921883583068848,1.7867984771728516
2167,1792,13.160505294799805,17.708694458007812,-971.5392456054688,-1.5555123090744019,10.921883583068848,1.7867984771728516
2175,1792,13.160505294799805,17.708694458007812,-971.5392456054688,-1.5555123090744019,10.921883583068848,1.7867984771728516
2140,1792,13.160505294799805,17.708694458007812,-971.5392456054688,-1.5555123090744019,10.921883583068848,1.7867984771728516
2239,1793,15.40498161315918,19.94844627380371,-969.4512329101562,0.47373077273368835,-9.905414581298828,4.7140984535217285
2215,1793,15.40498161315918,19.94844627380371,-969.4512329101562,0.47373077273368835,-9.905414581298828,4.7140984535217285
2227,1793,15.40498161315918,19.94844627380371,-969.4512329101562,0.47373077273368835,-9.905414581298828,4.7140984535217285
2247,1793,15.40498161315918,19.94844627380371,-969.4512329101562,0.47373077273368835,-9.905414581298828,4.7140984535217285
2170,1793,15.40498161315918,19.94844627380371,-969.4512329101562,0.47373077273368835,-9.905414581298828,4.7140984535217285
2146,1793,15.40498161315918,19.94844627380371,-969.4512329101562,0.47373077273368835,-9.905414581298828,4.7140984535217285
2158,1793,15.40498161315918,19.94844627380371,-969.4512329101562,0.47373077273368835,-9.905414581298828,4.7140984535217285
2178,1793,15.40498161315918,19.94844627380371,-969.4512329101562,0.47373077273368835,-9.905414581298828,4.7140984535217285
2247,1794,14.966830253601074,17.476192474365234,-974.4170532226562,2.244934558868408,-9.655998229980469,7.596095085144043
2227,1794,14.966830253601074,17.476192474365234,-974.4170532226562,2.244934558868408,-9.655998229980469,7.596095085144043
2214,1794,14.966830253601074,17.476192474365234,-974.4170532226562,2.244934558868408,-9.655998229980469,7.596095085144043
2240,1794,14.966830253601074,17.476192474365234,-974.4170532226562,2.244934558868408,-9.655998229980469,7.596095085144043
2178,1794,14.966830253601074,17.476192474365234,-974.4170532226562,2.244934558868408,-9.655998229980469,7.596095085144043
2158,1794,14.966830253601074,17.476192474365234,-974.4170532226562,2.244934558868408,-9.655998229980469,7.596095085144043
2145,1794,14.966830253601074,17.476192474365234,-974.4170532226562,2.244934558868408,-9.655998229980469,7.596095085144043
2171,1794,14.966830253601074,17.476192474365234,-974.4170532226562,2.244934558868408,-9.655998229980469,7.596095085144043
2240,1795,16.306556701660156,13.475420951843262,-972.5956420898438,3.4587812423706055,-5.04171085357666,10.211675643920898
2214,1795,16.306556701660156,13.475420951843262,-972.5956420898438,3.4587812423706055,-5.04171085357666,10.211675643920898
2213,1795,16.306556701660156,13.475420951843262,-972.5956420898438,3.4587812423706055,-5.04171085357666,10.211675643920898
2241,1795,16.306556701660156,13.475420951843262,-972.5956420898438,3.4587812423706055,-5.04171085357666,10.211675643920898
2171,1795,16.306556701660156,13.475420951843262,-972.5956420898438,3.4587812423706055,-5.04171085357666,10.211675643920898
2145,1795,16.306556701660156,13.475420951843262,-972.5956420898438,3.4587812423706055,-5.04171085357666,10.211675643920898
2144,1795,16.306556701660156,13.475420951843262,-972.5956420898438,3.4587812423706055,-5.04171085357666,10.211675643920898
2172,1795,16.306556701660156,13.475420951843262,-972.5956420898438,3.4587812423706055,-5.04171085357666,10.211675643920898
2241,1796,16.472030639648438,9.8024263381958,-973.8102416992188,1.0392566919326782,-3.809762477874756,10.615689277648926
2213,1796,16.472030639648438,9.8024263381958,-973.8102416992188,1.0392566919326782,-3.809762477874756,10.615689277648926
2226,1796,16.472030639648438,9.8024263381958,-973.8102416992188,1.0392566919326782,-3.809762477874756,10.615689277648926
2246,1796,16.472030639648438,9.8024263381958,-973.8102416992188,1.0392566919326782,-3.809762477874756,10.615689277648926
2172,1796,16.472030639648438,9.8024263381958,-973.8102416992188,1.0392566919326782,-3.809762477874756,10.615689277648926
2144,1796,16.472030639648438,9.8024263381958,-973.8102416992188,1.0392566919326782,-3.809762477874756,10.615689277648926
2157,1796,16.472030639648438,9.8024263381958,-973.8102416992188,1.0392566919326782,-3.809762477874756,10.615689277648926
2177,1796,16.472030639648438,9.8024263381958,-973.8102416992188,1.0392566919326782,-3.809762477874756,10.615689277648926
2246,1797,21.262218475341797,19.830642700195312,-967.9763793945312,-0.39498046040534973,-0.1609300971031189,11.64106273651123
2226,1797,21.262218475341797,19.830642700195312,-967.9763793945312,-0.39498046040534973,-0.1609300971031189,11.64106273651123
2212,1797,21.262218475341797,19.830642700195312,-967.9763793945312,-0.39498046040534973,-0.1609300971031189,11.64106273651123
2242,1797,21.262218475341797,19.830642700195312,-967.9763793945312,-0.39498046040534973,-0.1609300971031189,11.64106273651123
2177,1797,21.262218475341797,19.830642700195312,-967.9763793945312,-0.39498046040534973,-0.1609300971031189,11.64106273651123
2157,1797,21.262218475341797,19.830642700195312,-967.9763793945312,-0.39498046040534973,-0.1609300971031189,11.64106273651123
2143,1797,21.262218475341797,19.830642700195312,-967.9763793945312,-0.39498046040534973,-0.1609300971031189,11.64106273651123
2173,1797,21.262218475341797,19.830642700195312,-967.9763793945312,-0.39498046040534973,-0.1609300971031189,11.64106273651123
2266,1798,13.457706451416016,10.057104110717773,-973.4661254882812,-3.2908568382263184,6.253057956695557,9.114660263061523
2211,1798,13.457706451416016,10.057104110717773,-973.4661254882812,-3.2908568382263184,6.253057956695557,9.114660263061523
2210,1798,13.457706451416016,10.057104110717773,-973.4661254882812,-3.2908568382263184,6.253057956695557,9.114660263061523
2267,1798,13.457706451416016,10.057104110717773,-973.4661254882812,-3.2908568382263184,6.253057956695557,9.114660263061523
2197,1798,13.457706451416016,10.057104110717773,-973.4661254882812,-3.2908568382263184,6.253057956695557,9.114660263061523
2142,1798,13.457706451416016,10.057104110717773,-973.4661254882812,-3.2908568382263184,6.253057956695557,9.114660263061523
2141,1798,13.457706451416016,10.057104110717773,-973.4661254882812,-3.2908568382263184,6.253057956695557,9.114660263061523
2198,1798,13.457706451416016,10.057104110717773,-973.4661254882812,-3.2908568382263184,6.253057956695557,9.114660263061523
2245,1799,12.408562660217285,15.307366371154785,-975.9901123046875,-2.5383143424987793,11.164643287658691,4.134604454040527
2225,1799,12.408562660217285,15.307366371154785,-975.9901123046875,-2.5383143424987793,11.164643287658691,4.134604454040527
2209,1799,12.408562660217285,15.307366371154785,-975.9901123046875,-2.5383143424987793,11.164643287658691,4.134604454040527
2244,1799,12.408562660217285,15.307366371154785,-975.9901123046875,-2.5383143424987793,11.164643287658691,4.134604454040527
2176,1799,12.408562660217285,15.307366371154785,-975.9901123046875,-2.5383143424987793,11.164643287658691,4.134604454040527
2156,1799,12.408562660217285,15.307366371154785,-975.9901123046875,-2.5383143424987793,11.164643287658691,4.134604454040527
2140,1799,12.408562660217285,15.307366371154785,-975.9901123046875,-2.5383143424987793,11.164643287658691,4.134604454040527
2175,1799,12.408562660217285,15.307366371154785,-975.9901123046875,-2.5383143424987793,11.164643287658691,4.134604454040527
2268,1800,-17.783777236938477,1.7690852880477905,-1018.2669677734375,-1.8249245882034302,8.059187889099121,0.3016386032104492
2244,1800,-17.783777236938477,1.7690852880477905,-1018.2669677734375,-1.8249245882034302,8.059187889099121,0.3016386032104492
2236,1800,-17.783777236938477,1.7690852880477905,-1018.2669677734375,-1.8249245882034302,8.059187889099121,0.3016386032104492
2251,1800,-17.783777236938477,1.7690852880477905,-1018.2669677734375,-1.8249245882034302,8.059187889099121,0.3016386032104492
2199,1800,-17.783777236938477,1.7690852880477905,-1018.2669677734375,-1.8249245882034302,8.059187889099121,0.3016386032104492
2175,1800,-17.783777236938477,1.7690852880477905,-1018.2669677734375,-1.8249245882034302,8.059187889099121,0.3016386032104492
2167,1800,-17.783777236938477,1.7690852880477905,-1018.2669677734375,-1.8249245882034302,8.059187889099121,0.3016386032104492
2182,1800,-17.783777236938477,1.7690852880477905,-1018.2669677734375,-1.8249245882034302,8.059187889099121,0.3016386032104492
2267,1801,-7.04500150680542,-2.626661539077759,-1025.8892822265625,-8.538875579833984,9.970781326293945,7.883525848388672
2245,1801,-7.04500150680542,-2.626661539077759,-1025.8892822265625,-8.538875579833984,9.970781326293945,7.883525848388672
2257,1801,-7.04500150680542,-2.626661539077759,-1025.8892822265625,-8.538875579833984,9.970781326293945,7.883525848388672
2243,1801,-7.04500150680542,-2.626661539077759,-1025.8892822265625,-8.538875579833984,9.970781326293945,7.883525848388672
2198,1801,-7.04500150680542,-2.626661539077759,-1025.8892822265625,-8.538875579833984,9.970781326293945,7.883525848388672
2176,1801,-7.04500150680542,-2.626661539077759,-1025.8892822265625,-8.538875579833984,9.970781326293945,7.883525848388672
2188,1801,-7.04500150680542,-2.626661539077759,-1025.8892822265625,-8.538875579833984,9.970781326293945,7.883525848388672
2174,1801,-7.04500150680542,-2.626661539077759,-1025.8892822265625,-8.538875579833984,9.970781326293945,7.883525848388672
2242,1802,20.447933197021484,18.39982795715332,-969.1256713867188,-0.6109132766723633,3.6278023719787598,11.746788024902344
2212,1802,20.447933197021484,18.39982795715332,-969.1256713867188,-0.6109132766723633,3.6278023719787598,11.746788024902344
2211,1802,20.447933197021484,18.39982795715332,-969.1256713867188,-0.6109132766723633,3.6278023719787598,11.746788024902344
2266,1802,20.447933197021484,18.39982795715332,-969.1256713867188,-0.6109132766723633,3.6278023719787598,11.746788024902344
2173,1802,20.447933197021484,18.39982795715332,-969.1256713867188,-0.6109132766723633,3.6278023719787598,11.746788024902344
2143,1802,20.447933197021484,18.39982795715332,-969.1256713867188,-0.6109132766723633,3.6278023719787598,11.746788024902344
2142,1802,20.447933197021484,18.39982795715332,-969.1256713867188,-0.6109132766723633,3.6278023719787598,11.746788024902344
2197,1802,20.447933197021484,18.39982795715332,-969.1256713867188,-0.6109132766723633,3.6278023719787598,11.746788024902344
2251,1803,-13.7752046585083,1.3292549848556519,-1003.0840454101562,3.2122209072113037,7.49143123626709,0.12790486216545105
2236,1803,-13.7752046585083,1.3292549848556519,-1003.0840454101562,3.2122209072113037,7.49143123626709,0.12790486216545105
2233,1803,-13.7752046585083,1.3292549848556519,-1003.0840454101562,3.2122209072113037,7.49143123626709,0.12790486216545105
2277,1803,-13.7752046585083,1.3292549848556519,-1003.0840454101562,3.2122209072113037,7.49143123626709,0.12790486216545105
2182,1803,-13.7752046585083,1.3292549848556519,-1003.0840454101562,3.2122209072113037,7.49143123626709,0.12790486216545105
2167,1803,-13.7752046585083,1.3292549848556519,-1003.0840454101562,3.2122209072113037,7.49143123626709,0.12790486216545105
2164,1803,-13.7752046585083,1.3292549848556519,-1003.0840454101562,3.2122209072113037,7.49143123626709,0.12790486216545105
2208,1803,-13.7752046585083,1.3292549848556519,-1003.0840454101562,3.2122209072113037,7.49143123626709,0.12790486216545105
2262,1804,5.377981185913086,8.398154258728027,-1039.704833984375,3.6481499671936035,21.19422149658203,-8.112396240234375
2277,1804,5.377981185913086,8.398154258728027,-1039.704833984375,3.6481499671936035,21.19422149658203,-8.112396240234375
2253,1804,5.377981185913086,8.398154258728027,-1039.704833984375,3.6481499671936035,21.19422149658203,-8.112396240234375
2261,1804,5.377981185913086,8.398154258728027,-1039.704833984375,3.6481499671936035,21.19422149658203,-8.112396240234375
2193,1804,5.377981185913086,8.398154258728027,-1039.704833984375,3.6481499671936035,21.19422149658203,-8.112396240234375
2208,1804,5.377981185913086,8.398154258728027,-1039.704833984375,3.6481499671936035,21.19422149658203,-8.112396240234375
2184,1804,5.377981185913086,8.398154258728027,-1039.704833984375,3.6481499671936035,21.19422149658203,-8.112396240234375
2192,1804,5.377981185913086,8.398154258728027,-1039.704833984375,3.6481499671936035,21.19422149658203,-8.112396240234375
2232,1805,2.989201545715332,-12.95522689819336,-1004.108154296875,4.7788190841674805,1.2006357908248901,-6.684147834777832
2249,1805,2.989201545715332,-12.95522689819336,-1004.108154296875,4.7788190841674805,1.2006357908248901,-6.684147834777832
2271,1805,2.989201545715332,-12.95522689819336,-1004.108154296875,4.7788190841674805,1.2006357908248901,-6.684147834777832
2256,1805,2.989201545715332,-12.95522689819336,-1004.108154296875,4.7788190841674805,1.2006357908248901,-6.684147834777832
2163,1805,2.989201545715332,-12.95522689819336,-1004.108154296875,4.7788190841674805,1.2006357908248901,-6.684147834777832
2180,1805,2.989201545715332,-12.95522689819336,-1004.108154296875,4.7788190841674805,1.2006357908248901,-6.684147834777832
2202,1805,2.989201545715332,-12.95522689819336,-1004.108154296875,4.7788190841674805,1.2006357908248901,-6.684147834777832
2187,1805,2.989201545715332,-12.95522689819336,-1004.108154296875,4.7788190841674805,1.2006357908248901,-6.684147834777832
2256,1806,16.11844253540039,1.2017513513565063,-1021.0877075195312,1.8354905843734741,6.530354976654053,-30.425193786621094
2271,1806,16.11844253540039,1.2017513513565063,-1021.0877075195312,1.8354905843734741,6.530354976654053,-30.425193786621094
2255,1806,16.11844253540039,1.2017513513565063,-1021.0877075195312,1.8354905843734741,6.530354976654053,-30.425193786621094
2261,1806,16.11844253540039,1.2017513513565063,-1021.0877075195312,1.8354905843734741,6.530354976654053,-30.425193786621094
2187,1806,16.11844253540039,1.2017513513565063,-1021.0877075195312,1.8354905843734741,6.530354976654053,-30.425193786621094
2202,1806,16.11844253540039,1.2017513513565063,-1021.0877075195312,1.8354905843734741,6.530354976654053,-30.425193786621094
2186,1806,16.11844253540039,1.2017513513565063,-1021.0877075195312,1.8354905843734741,6.530354976654053,-30.425193786621094
2192,1806,16.11844253540039,1.2017513513565063,-1021.0877075195312,1.8354905843734741,6.530354976654053,-30.425193786621094
2258,1807,-1.8402061462402344,-18.280473709106445,-1006.870849609375,-2.054579496383667,-0.6944189667701721,-0.3804634213447571
2246,1807,-1.8402061462402344,-18.280473709106445,-1006.870849609375,-2.054579496383667,-0.6944189667701721,-0.3804634213447571
2242,1807,-1.8402061462402344,-18.280473709106445,-1006.870849609375,-2.054579496383667,-0.6944189667701721,-0.3804634213447571
2266,1807,-1.8402061462402344,-18.280473709106445,-1006.870849609375,-2.054579496383667,-0.6944189667701721,-0.3804634213447571
2189,1807,-1.8402061462402344,-18.280473709106445,-1006.870849609375,-2.054579496383667,-0.6944189667701721,-0.3804634213447571
2177,1807,-1.8402061462402344,-18.280473709106445,-1006.870849609375,-2.054579496383667,-0.6944189667701721,-0.3804634213447571
2173,1807,-1.8402061462402344,-18.280473709106445,-1006.870849609375,-2.054579496383667,-0.6944189667701721,-0.3804634213447571
2197,1807,-1.8402061462402344,-18.280473709106445,-1006.870849609375,-2.054579496383667,-0.6944189667701721,-0.3804634213447571
2256,1808,12.187024116516113,8.83702564239502,-1009.4450073242188,4.539565563201904,23.680410385131836,-23.82455825805664
2261,1808,12.187024116516113,8.83702564239502,-1009.4450073242188,4.539565563201904,23.680410385131836,-23.82455825805664
2253,1808,12.187024116516113,8.83702564239502,-1009.4450073242188,4.539565563201904,23.680410385131836,-23.82455825805664
2270,1808,12.187024116516113,8.83702564239502,-1009.4450073242188,4.539565563201904,23.680410385131836,-23.82455825805664
2187,1808,12.187024116516113,8.83702564239502,-1009.4450073242188,4.539565563201904,23.680410385131836,-23.82455825805664
2192,1808,12.187024116516113,8.83702564239502,-1009.4450073242188,4.539565563201904,23.680410385131836,-23.82455825805664
2184,1808,12.187024116516113,8.83702564239502,-1009.4450073242188,4.539565563201904,23.680410385131836,-23.82455825805664
2201,1808,12.187024116516113,8.83702564239502,-1009.4450073242188,4.539565563201904,23.680410385131836,-23.82455825805664
2234,1809,0.18572208285331726,-11.574307441711426,-1016.3558349609375,-7.182941436767578,0.36197522282600403,-10.278159141540527
2265,1809,0.18572208285331726,-11.574307441711426,-1016.3558349609375,-7.182941436767578,0.36197522282600403,-10.278159141540527
2272,1809,0.18572208285331726,-11.574307441711426,-1016.3558349609375,-7.182941436767578,0.36197522282600403,-10.278159141540527
2255,1809,0.18572208285331726,-11.574307441711426,-1016.3558349609375,-7.182941436767578,0.36197522282600403,-10.278159141540527
2165,1809,0.18572208285331726,-11.574307441711426,-1016.3558349609375,-7.182941436767578,0.36197522282600403,-10.278159141540527
2196,1809,0.18572208285331726,-11.574307441711426,-1016.3558349609375,-7.182941436767578,0.36197522282600403,-10.278159141540527
2203,1809,0.18572208285331726,-11.574307441711426,-1016.3558349609375,-7.182941436767578,0.36197522282600403,-10.278159141540527
2186,1809,0.18572208285331726,-11.574307441711426,-1016.3558349609375,-7.182941436767578,0.36197522282600403,-10.278159141540527
2276,1810,13.012800216674805,10.878458023071289,-1020.022216796875,-0.5779075622558594,3.0746099948883057,29.345767974853516
2258,1810,13.012800216674805,10.878458023071289,-1020.022216796875,-0.5779075622558594,3.0746099948883057,29.345767974853516
2243,1810,13.012800216674805,10.878458023071289,-1020.022216796875,-0.5779075622558594,3.0746099948883057,29.345767974853516
2264,1810,13.012800216674805,10.878458023071289,-1020.022216796875,-0.5779075622558594,3.0746099948883057,29.345767974853516
2207,1810,13.012800216674805,10.878458023071289,-1020.022216796875,-0.5779075622558594,3.0746099948883057,29.345767974853516
2189,1810,13.012800216674805,10.878458023071289,-1020.022216796875,-0.5779075622558594,3.0746099948883057,29.345767974853516
2174,1810,13.012800216674805,10.878458023071289,-1020.022216796875,-0.5779075622558594,3.0746099948883057,29.345767974853516
2195,1810,13.012800216674805,10.878458023071289,-1020.022216796875,-0.5779075622558594,3.0746099948883057,29.345767974853516
2252,1811,-1.3127044439315796,17.379756927490234,-1017.7660522460938,0.37619292736053467,-32.567684173583984,2.1691460609436035
2274,1811,-1.3127044439315796,17.379756927490234,-1017.7660522460938,0.37619292736053467,-32.567684173583984,2.1691460609436035
2259,1811,-1.3127044439315796,17.379756927490234,-1017.7660522460938,0.37619292736053467,-32.567684173583984,2.1691460609436035
2263,1811,-1.3127044439315796,17.379756927490234,-1017.7660522460938,0.37619292736053467,-32.567684173583984,2.1691460609436035
2183,1811,-1.3127044439315796,17.379756927490234,-1017.7660522460938,0.37619292736053467,-32.567684173583984,2.1691460609436035
2205,1811,-1.3127044439315796,17.379756927490234,-1017.7660522460938,0.37619292736053467,-32.567684173583984,2.1691460609436035
2190,1811,-1.3127044439315796,17.379756927490234,-1017.7660522460938,0.37619292736053467,-32.567684173583984,2.1691460609436035
2194,1811,-1.3127044439315796,17.379756927490234,-1017.7660522460938,0.37619292736053467,-32.567684173583984,2.1691460609436035
2275,1812,-4.721817970275879,-3.987779378890991,-998.0551147460938,5.721436500549316,-6.839142322540283,5.954837322235107
2247,1812,-4.721817970275879,-3.987779378890991,-998.0551147460938,5.721436500549316,-6.839142322540283,5.954837322235107
2240,1812,-4.721817970275879,-3.987779378890991,-998.0551147460938,5.721436500549316,-6.839142322540283,5.954837322235107
2254,1812,-4.721817970275879,-3.987779378890991,-998.0551147460938,5.721436500549316,-6.839142322540283,5.954837322235107
2206,1812,-4.721817970275879,-3.987779378890991,-998.0551147460938,5.721436500549316,-6.839142322540283,5.954837322235107
2178,1812,-4.721817970275879,-3.987779378890991,-998.0551147460938,5.721436500549316,-6.839142322540283,5.954837322235107
2171,1812,-4.721817970275879,-3.987779378890991,-998.0551147460938,5.721436500549316,-6.839142322540283,5.954837322235107
2185,1812,-4.721817970275879,-3.987779378890991,-998.0551147460938,5.721436500549316,-6.839142322540283,5.954837322235107
2264,1813,7.631274700164795,4.242132186889648,-1046.2139892578125,2.116442918777466,-13.184749603271484,13.530268669128418
2263,1813,7.631274700164795,4.242132186889648,-1046.2139892578125,2.116442918777466,-13.184749603271484,13.530268669128418
2254,1813,7.631274700164795,4.242132186889648,-1046.2139892578125,2.116442918777466,-13.184749603271484,13.530268669128418
2276,1813,7.631274700164795,4.242132186889648,-1046.2139892578125,2.116442918777466,-13.184749603271484,13.530268669128418
2195,1813,7.631274700164795,4.242132186889648,-1046.2139892578125,2.116442918777466,-13.184749603271484,13.530268669128418
2194,1813,7.631274700164795,4.242132186889648,-1046.2139892578125,2.116442918777466,-13.184749603271484,13.530268669128418
2185,1813,7.631274700164795,4.242132186889648,-1046.2139892578125,2.116442918777466,-13.184749603271484,13.530268669128418
2207,1813,7.631274700164795,4.242132186889648,-1046.2139892578125,2.116442918777466,-13.184749603271484,13.530268669128418
2264,1814,-3.855619192123413,0.5086879134178162,-1073.883544921875,-0.36875686049461365,-0.3665609657764435,-2.2745532989501953
2269,1814,-3.855619192123413,0.5086879134178162,-1073.883544921875,-0.36875686049461365,-0.3665609657764435,-2.2745532989501953
2262,1814,-3.855619192123413,0.5086879134178162,-1073.883544921875,-0.36875686049461365,-0.3665609657764435,-2.2745532989501953
2261,1814,-3.855619192123413,0.5086879134178162,-1073.883544921875,-0.36875686049461365,-0.3665609657764435,-2.2745532989501953
2195,1814,-3.855619192123413,0.5086879134178162,-1073.883544921875,-0.36875686049461365,-0.3665609657764435,-2.2745532989501953
2200,1814,-3.855619192123413,0.5086879134178162,-1073.883544921875,-0.36875686049461365,-0.3665609657764435,-2.2745532989501953
2193,1814,-3.855619192123413,0.5086879134178162,-1073.883544921875,-0.36875686049461365,-0.3665609657764435,-2.2745532989501953
2192,1814,-3.855619192123413,0.5086879134178162,-1073.883544921875,-0.36875686049461365,-0.3665609657764435,-2.2745532989501953
2254,1815,6.80063009262085,12.963449478149414,-1007.0416259765625,4.37992525100708,-25.6231632232666,21.942970275878906
2263,1815,6.80063009262085,12.963449478149414,-1007.0416259765625,4.37992525100708,-25.6231632232666,21.942970275878906
2259,1815,6.80063009262085,12.963449478149414,-1007.0416259765625,4.37992525100708,-25.6231632232666,21.942970275878906
2275,1815,6.80063009262085,12.963449478149414,-1007.0416259765625,4.37992525100708,-25.6231632232666,21.942970275878906
2185,1815,6.80063009262085,12.963449478149414,-1007.0416259765625,4.37992525100708,-25.6231632232666,21.942970275878906
2194,1815,6.80063009262085,12.963449478149414,-1007.0416259765625,4.37992525100708,-25.6231632232666,21.942970275878906
2190,1815,6.80063009262085,12.963449478149414,-1007.0416259765625,4.37992525100708,-25.6231632232666,21.942970275878906
2206,1815,6.80063009262085,12.963449478149414,-1007.0416259765625,4.37992525100708,-25.6231632232666,21.942970275878906
2265,1816,17.15154266357422,12.207316398620605,-975.192138671875,-2.5504872798919678,-6.762185096740723,-10.153596878051758
2219,1816,17.15154266357422,12.207316398620605,-975.192138671875,-2.5504872798919678,-6.762185096740723,-10.153596878051758
2218,1816,17.15154266357422,12.207316398620605,-975.192138671875,-2.5504872798919678,-6.762185096740723,-10.153596878051758
2235,1816,17.15154266357422,12.207316398620605,-975.192138671875,-2.5504872798919678,-6.762185096740723,-10.153596878051758
2196,1816,17.15154266357422,12.207316398620605,-975.192138671875,-2.5504872798919678,-6.762185096740723,-10.153596878051758
2150,1816,17.15154266357422,12.207316398620605,-975.192138671875,-2.5504872798919678,-6.762185096740723,-10.153596878051758
2149,1816,17.15154266357422,12.207316398620605,-975.192138671875,-2.5504872798919678,-6.762185096740723,-10.153596878051758
2166,1816,17.15154266357422,12.207316398620605,-975.192138671875,-2.5504872798919678,-6.762185096740723,-10.153596878051758
2267,1817,13.327787399291992,12.580863952636719,-974.255615234375,-4.41515588760376,8.472907066345215,8.744598388671875
2210,1817,13.327787399291992,12.580863952636719,-974.255615234375,-4.41515588760376,8.472907066345215,8.744598388671875
2225,1817,13.327787399291992,12.580863952636719,-974.255615234375,-4.41515588760376,8.472907066345215,8.744598388671875
2245,1817,13.327787399291992,12.580863952636719,-974.255615234375,-4.41515588760376,8.472907066345215,8.744598388671875
2198,1817,13.327787399291992,12.580863952636719,-974.255615234375,-4.41515588760376,8.472907066345215,8.744598388671875
2141,1817,13.327787399291992,12.580863952636719,-974.255615234375,-4.41515588760376,8.472907066345215,8.744598388671875
2156,1817,13.327787399291992,12.580863952636719,-974.255615234375,-4.41515588760376,8.472907066345215,8.744598388671875
2176,1817,13.327787399291992,12.580863952636719,-974.255615234375,-4.41515588760376,8.472907066345215,8.744598388671875
2244,1818,-10.078462600708008,2.0980355739593506,-1005.0736694335938,-5.472108840942383,11.067137718200684,4.812516212463379
2268,1818,-10.078462600708008,2.0980355739593506,-1005.0736694335938,-5.472108840942383,11.067137718200684,4.812516212463379
2257,1818,-10.078462600708008,2.0980355739593506,-1005.0736694335938,-5.472108840942383,11.067137718200684,4.812516212463379
2245,1818,-10.078462600708008,2.0980355739593506,-1005.0736694335938,-5.472108840942383,11.067137718200684,4.812516212463379
2175,1818,-10.078462600708008,2.0980355739593506,-1005.0736694335938,-5.472108840942383,11.067137718200684,4.812516212463379
2199,1818,-10.078462600708008,2.0980355739593506,-1005.0736694335938,-5.472108840942383,11.067137718200684,4.812516212463379
2188,1818,-10.078462600708008,2.0980355739593506,-1005.0736694335938,-5.472108840942383,11.067137718200684,4.812516212463379
2176,1818,-10.078462600708008,2.0980355739593506,-1005.0736694335938,-5.472108840942383,11.067137718200684,4.812516212463379
2268,1819,10.69832992553711,18.182022094726562,-996.0020751953125,-1.5026541948318481,37.050777435302734,-3.836413621902466
2251,1819,10.69832992553711,18.182022094726562,-996.0020751953125,-1.5026541948318481,37.050777435302734,-3.836413621902466
2277,1819,10.69832992553711,18.182022094726562,-996.0020751953125,-1.5026541948318481,37.050777435302734,-3.836413621902466
2262,1819,10.69832992553711,18.182022094726562,-996.0020751953125,-1.5026541948318481,37.050777435302734,-3.836413621902466
2199,1819,10.69832992553711,18.182022094726562,-996.0020751953125,-1.5026541948318481,37.050777435302734,-3.836413621902466
2182,1819,10.69832992553711,18.182022094726562,-996.0020751953125,-1.5026541948318481,37.050777435302734,-3.836413621902466
2208,1819,10.69832992553711,18.182022094726562,-996.0020751953125,-1.5026541948318481,37.050777435302734,-3.836413621902466
2193,1819,10.69832992553711,18.182022094726562,-996.0020751953125,-1.5026541948318481,37.050777435302734,-3.836413621902466
2270,1820,-5.232046127319336,-7.977469444274902,-1010.3927001953125,10.27651596069336,2.2514894008636475,-6.483351707458496
2231,1820,-5.232046127319336,-7.977469444274902,-1010.3927001953125,10.27651596069336,2.2514894008636475,-6.483351707458496
2232,1820,-5.232046127319336,-7.977469444274902,-1010.3927001953125,10.27651596069336,2.2514894008636475,-6.483351707458496
2256,1820,-5.232046127319336,-7.977469444274902,-1010.3927001953125,10.27651596069336,2.2514894008636475,-6.483351707458496
2201,1820,-5.232046127319336,-7.977469444274902,-1010.3927001953125,10.27651596069336,2.2514894008636475,-6.483351707458496
2162,1820,-5.232046127319336,-7.977469444274902,-1010.3927001953125,10.27651596069336,2.2514894008636475,-6.483351707458496
2163,1820,-5.232046127319336,-7.977469444274902,-1010.3927001953125,10.27651596069336,2.2514894008636475,-6.483351707458496
2187,1820,-5.232046127319336,-7.977469444274902,-1010.3927001953125,10.27651596069336,2.2514894008636475,-6.483351707458496
2271,1821,3.5795769691467285,-12.853240966796875,-1004.7667846679688,0.4769105911254883,0.20074604451656342,-8.701891899108887
2249,1821,3.5795769691467285,-12.853240966796875,-1004.7667846679688,0.4769105911254883,0.20074604451656342,-8.701891899108887
2234,1821,3.5795769691467285,-12.853240966796875,-1004.7667846679688,0.4769105911254883,0.20074604451656342,-8.701891899108887
2255,1821,3.5795769691467285,-12.853240966796875,-1004.7667846679688,0.4769105911254883,0.20074604451656342,-8.701891899108887
2202,1821,3.5795769691467285,-12.853240966796875,-1004.7667846679688,0.4769105911254883,0.20074604451656342,-8.701891899108887
2180,1821,3.5795769691467285,-12.853240966796875,-1004.7667846679688,0.4769105911254883,0.20074604451656342,-8.701891899108887
2165,1821,3.5795769691467285,-12.853240966796875,-1004.7667846679688,0.4769105911254883,0.20074604451656342,-8.701891899108887
2186,1821,3.5795769691467285,-12.853240966796875,-1004.7667846679688,0.4769105911254883,0.20074604451656342,-8.701891899108887
2273,1822,-11.54808521270752,-2.1704893112182617,-1009.079345703125,-8.839468955993652,-9.377693176269531,-0.7408171892166138
2248,1822,-11.54808521270752,-2.1704893112182617,-1009.079345703125,-8.839468955993652,-9.377693176269531,-0.7408171892166138
2237,1822,-11.54808521270752,-2.1704893112182617,-1009.079345703125,-8.839468955993652,-9.377693176269531,-0.7408171892166138
2252,1822,-11.54808521270752,-2.1704893112182617,-1009.079345703125,-8.839468955993652,-9.377693176269531,-0.7408171892166138
2204,1822,-11.54808521270752,-2.1704893112182617,-1009.079345703125,-8.839468955993652,-9.377693176269531,-0.7408171892166138
2179,1822,-11.54808521270752,-2.1704893112182617,-1009.079345703125,-8.839468955993652,-9.377693176269531,-0.7408171892166138
2168,1822,-11.54808521270752,-2.1704893112182617,-1009.079345703125,-8.839468955993652,-9.377693176269531,-0.7408171892166138
2183,1822,-11.54808521270752,-2.1704893112182617,-1009.079345703125,-8.839468955993652,-9.377693176269531,-0.7408171892166138
2274,1823,-13.784521102905273,3.897902727127075,-999.825439453125,1.5956830978393555,-5.678821563720703,0.7849025130271912
2238,1823,-13.784521102905273,3.897902727127075,-999.825439453125,1.5956830978393555,-5.678821563720703,0.7849025130271912
2239,1823,-13.784521102905273,3.897902727127075,-999.825439453125,1.5956830978393555,-5.678821563720703,0.7849025130271912
2259,1823,-13.784521102905273,3.897902727127075,-999.825439453125,1.5956830978393555,-5.678821563720703,0.7849025130271912
2205,1823,-13.784521102905273,3.897902727127075,-999.825439453125,1.5956830978393555,-5.678821563720703,0.7849025130271912
2169,1823,-13.784521102905273,3.897902727127075,-999.825439453125,1.5956830978393555,-5.678821563720703,0.7849025130271912
2170,1823,-13.784521102905273,3.897902727127075,-999.825439453125,1.5956830978393555,-5.678821563720703,0.7849025130271912
2190,1823,-13.784521102905273,3.897902727127075,-999.825439453125,1.5956830978393555,-5.678821563720703,0.7849025130271912
2276,1824,6.850623607635498,-7.835810661315918,-1003.4053344726562,3.3694772720336914,3.349445104598999,17.85281753540039
2241,1824,6.850623607635498,-7.835810661315918,-1003.4053344726562,3.3694772720336914,3.349445104598999,17.85281753540039
2246,1824,6.850623607635498,-7.835810661315918,-1003.4053344726562,3.3694772720336914,3.349445104598999,17.85281753540039
2258,1824,6.850623607635498,-7.835810661315918,-1003.4053344726562,3.3694772720336914,3.349445104598999,17.85281753540039
2207,1824,6.850623607635498,-7.835810661315918,-1003.4053344726562,3.3694772720336914,3.349445104598999,17.85281753540039
2172,1824,6.850623607635498,-7.835810661315918,-1003.4053344726562,3.3694772720336914,3.349445104598999,17.85281753540039
2177,1824,6.850623607635498,-7.835810661315918,-1003.4053344726562,3.3694772720336914,3.349445104598999,17.85281753540039
2189,1824,6.850623607635498,-7.835810661315918,-1003.4053344726562,3.3694772720336914,3.349445104598999,17.85281753540039
2301,1825,0.43232905864715576,-24.581422805786133,-952.1131591796875,7.877877235412598,1.6025155782699585,-1.8735041618347168
2290,1825,0.43232905864715576,-24.581422805786133,-952.1131591796875,7.877877235412598,1.6025155782699585,-1.8735041618347168
2289,1825,0.43232905864715576,-24.581422805786133,-952.1131591796875,7.877877235412598,1.6025155782699585,-1.8735041618347168
2318,1825,0.43232905864715576,-24.581422805786133,-952.1131591796875,7.877877235412598,1.6025155782699585,-1.8735041618347168
2232,1825,0.43232905864715576,-24.581422805786133,-952.1131591796875,7.877877235412598,1.6025155782699585,-1.8735041618347168
2221,1825,0.43232905864715576,-24.581422805786133,-952.1131591796875,7.877877235412598,1.6025155782699585,-1.8735041618347168
2220,1825,0.43232905864715576,-24.581422805786133,-952.1131591796875,7.877877235412598,1.6025155782699585,-1.8735041618347168
2249,1825,0.43232905864715576,-24.581422805786133,-952.1131591796875,7.877877235412598,1.6025155782699585,-1.8735041618347168
2318,1826,2.3241677284240723,-25.21575927734375,-953.504150390625,-0.13010255992412567,-0.6276016235351562,-4.107883930206299
2289,1826,2.3241677284240723,-25.21575927734375,-953.504150390625,-0.13010255992412567,-0.6276016235351562,-4.107883930206299
2298,1826,2.3241677284240723,-25.21575927734375,-953.504150390625,-0.13010255992412567,-0.6276016235351562,-4.107883930206299
2303,1826,2.3241677284240723,-25.21575927734375,-953.504150390625,-0.13010255992412567,-0.6276016235351562,-4.107883930206299
2249,1826,2.3241677284240723,-25.21575927734375,-953.504150390625,-0.13010255992412567,-0.6276016235351562,-4.107883930206299
2220,1826,2.3241677284240723,-25.21575927734375,-953.504150390625,-0.13010255992412567,-0.6276016235351562,-4.107883930206299
2229,1826,2.3241677284240723,-25.21575927734375,-953.504150390625,-0.13010255992412567,-0.6276016235351562,-4.107883930206299
2234,1826,2.3241677284240723,-25.21575927734375,-953.504150390625,-0.13010255992412567,-0.6276016235351562,-4.107883930206299
2299,1827,-21.7958927154541,-1.5644001960754395,-955.766845703125,10.114954948425293,3.0351829528808594,-1.721165657043457
2319,1827,-21.7958927154541,-1.5644001960754395,-955.766845703125,10.114954948425293,3.0351829528808594,-1.721165657043457
2302,1827,-21.7958927154541,-1.5644001960754395,-955.766845703125,10.114954948425293,3.0351829528808594,-1.721165657043457
2292,1827,-21.7958927154541,-1.5644001960754395,-955.766845703125,10.114954948425293,3.0351829528808594,-1.721165657043457
2230,1827,-21.7958927154541,-1.5644001960754395,-955.766845703125,10.114954948425293,3.0351829528808594,-1.721165657043457
2250,1827,-21.7958927154541,-1.5644001960754395,-955.766845703125,10.114954948425293,3.0351829528808594,-1.721165657043457
2233,1827,-21.7958927154541,-1.5644001960754395,-955.766845703125,10.114954948425293,3.0351829528808594,-1.721165657043457
2223,1827,-21.7958927154541,-1.5644001960754395,-955.766845703125,10.114954948425293,3.0351829528808594,-1.721165657043457
2290,1828,-8.37948226928711,-17.02794075012207,-953.8317260742188,14.084354400634766,0.21863429248332977,-2.026324987411499
2301,1828,-8.37948226928711,-17.02794075012207,-953.8317260742188,14.084354400634766,0.21863429248332977,-2.026324987411499
2300,1828,-8.37948226928711,-17.02794075012207,-953.8317260742188,14.084354400634766,0.21863429248332977,-2.026324987411499
2291,1828,-8.37948226928711,-17.02794075012207,-953.8317260742188,14.084354400634766,0.21863429248332977,-2.026324987411499
2221,1828,-8.37948226928711,-17.02794075012207,-953.8317260742188,14.084354400634766,0.21863429248332977,-2.026324987411499
2232,1828,-8.37948226928711,-17.02794075012207,-953.8317260742188,14.084354400634766,0.21863429248332977,-2.026324987411499
2231,1828,-8.37948226928711,-17.02794075012207,-953.8317260742188,14.084354400634766,0.21863429248332977,-2.026324987411499
2222,1828,-8.37948226928711,-17.02794075012207,-953.8317260742188,14.084354400634766,0.21863429248332977,-2.026324987411499
2329,1829,-23.816417694091797,-27.327106475830078,-1081.51220703125,8.306900978088379,8.081485748291016,4.9099531173706055
2342,1829,-23.816417694091797,-27.327106475830078,-1081.51220703125,8.306900978088379,8.081485748291016,4.9099531173706055
2321,1829,-23.816417694091797,-27.327106475830078,-1081.51220703125,8.306900978088379,8.081485748291016,4.9099531173706055
2332,1829,-23.816417694091797,-27.327106475830078,-1081.51220703125,8.306900978088379,8.081485748291016,4.9099531173706055
2260,1829,-23.816417694091797,-27.327106475830078,-1081.51220703125,8.306900978088379,8.081485748291016,4.9099531173706055
2273,1829,-23.816417694091797,-27.327106475830078,-1081.51220703125,8.306900978088379,8.081485748291016,4.9099531173706055
2252,1829,-23.816417694091797,-27.327106475830078,-1081.51220703125,8.306900978088379,8.081485748291016,4.9099531173706055
2263,1829,-23.816417694091797,-27.327106475830078,-1081.51220703125,8.306900978088379,8.081485748291016,4.9099531173706055
2345,1830,0.5746156573295593,5.830038547515869,-1008.3348388671875,-6.530834674835205,-16.698944091796875,27.102033615112305
2323,1830,0.5746156573295593,5.830038547515869,-1008.3348388671875,-6.530834674835205,-16.698944091796875,27.102033615112305
2309,1830,0.5746156573295593,5.830038547515869,-1008.3348388671875,-6.530834674835205,-16.698944091796875,27.102033615112305
2310,1830,0.5746156573295593,5.830038547515869,-1008.3348388671875,-6.530834674835205,-16.698944091796875,27.102033615112305
2276,1830,0.5746156573295593,5.830038547515869,-1008.3348388671875,-6.530834674835205,-16.698944091796875,27.102033615112305
2254,1830,0.5746156573295593,5.830038547515869,-1008.3348388671875,-6.530834674835205,-16.698944091796875,27.102033615112305
2240,1830,0.5746156573295593,5.830038547515869,-1008.3348388671875,-6.530834674835205,-16.698944091796875,27.102033615112305
2241,1830,0.5746156573295593,5.830038547515869,-1008.3348388671875,-6.530834674835205,-16.698944091796875,27.102033615112305
2333,1831,-40.92314910888672,-43.77744674682617,-1042.450927734375,2.498612880706787,3.3772952556610107,3.666376829147339
2330,1831,-40.92314910888672,-43.77744674682617,-1042.450927734375,2.498612880706787,3.3772952556610107,3.666376829147339
2329,1831,-40.92314910888672,-43.77744674682617,-1042.450927734375,2.498612880706787,3.3772952556610107,3.666376829147339
2332,1831,-40.92314910888672,-43.77744674682617,-1042.450927734375,2.498612880706787,3.3772952556610107,3.666376829147339
2264,1831,-40.92314910888672,-43.77744674682617,-1042.450927734375,2.498612880706787,3.3772952556610107,3.666376829147339
2261,1831,-40.92314910888672,-43.77744674682617,-1042.450927734375,2.498612880706787,3.3772952556610107,3.666376829147339
2260,1831,-40.92314910888672,-43.77744674682617,-1042.450927734375,2.498612880706787,3.3772952556610107,3.666376829147339
2263,1831,-40.92314910888672,-43.77744674682617,-1042.450927734375,2.498612880706787,3.3772952556610107,3.666376829147339
2324,1832,-33.21076965332031,-22.950122833251953,-1090.4613037109375,7.163417339324951,4.946635723114014,11.89705753326416
2341,1832,-33.21076965332031,-22.950122833251953,-1090.4613037109375,7.163417339324951,4.946635723114014,11.89705753326416
2329,1832,-33.21076965332031,-22.950122833251953,-1090.4613037109375,7.163417339324951,4.946635723114014,11.89705753326416
2330,1832,-33.21076965332031,-22.950122833251953,-1090.4613037109375,7.163417339324951,4.946635723114014,11.89705753326416
2255,1832,-33.21076965332031,-22.950122833251953,-1090.4613037109375,7.163417339324951,4.946635723114014,11.89705753326416
2272,1832,-33.21076965332031,-22.950122833251953,-1090.4613037109375,7.163417339324951,4.946635723114014,11.89705753326416
2260,1832,-33.21076965332031,-22.950122833251953,-1090.4613037109375,7.163417339324951,4.946635723114014,11.89705753326416
2261,1832,-33.21076965332031,-22.950122833251953,-1090.4613037109375,7.163417339324951,4.946635723114014,11.89705753326416
2304,1833,-0.4618288576602936,-1.8814407587051392,-1021.6327514648438,4.36572790145874,-23.18187713623047,-18.797794342041016
2317,1833,-0.4618288576602936,-1.8814407587051392,-1021.6327514648438,4.36572790145874,-23.18187713623047,-18.797794342041016
2342,1833,-0.4618288576602936,-1.8814407587051392,-1021.6327514648438,4.36572790145874,-23.18187713623047,-18.797794342041016
2329,1833,-0.4618288576602936,-1.8814407587051392,-1021.6327514648438,4.36572790145874,-23.18187713623047,-18.797794342041016
2235,1833,-0.4618288576602936,-1.8814407587051392,-1021.6327514648438,4.36572790145874,-23.18187713623047,-18.797794342041016
2248,1833,-0.4618288576602936,-1.8814407587051392,-1021.6327514648438,4.36572790145874,-23.18187713623047,-18.797794342041016
2273,1833,-0.4618288576602936,-1.8814407587051392,-1021.6327514648438,4.36572790145874,-23.18187713623047,-18.797794342041016
2260,1833,-0.4618288576602936,-1.8814407587051392,-1021.6327514648438,4.36572790145874,-23.18187713623047,-18.797794342041016
2344,1834,8.694497108459473,13.391201972961426,-984.84033203125,-4.662461280822754,-37.18019485473633,19.992862701416016
2328,1834,8.694497108459473,13.391201972961426,-984.84033203125,-4.662461280822754,-37.18019485473633,19.992862701416016
2308,1834,8.694497108459473,13.391201972961426,-984.84033203125,-4.662461280822754,-37.18019485473633,19.992862701416016
2316,1834,8.694497108459473,13.391201972961426,-984.84033203125,-4.662461280822754,-37.18019485473633,19.992862701416016
2275,1834,8.694497108459473,13.391201972961426,-984.84033203125,-4.662461280822754,-37.18019485473633,19.992862701416016
2259,1834,8.694497108459473,13.391201972961426,-984.84033203125,-4.662461280822754,-37.18019485473633,19.992862701416016
2239,1834,8.694497108459473,13.391201972961426,-984.84033203125,-4.662461280822754,-37.18019485473633,19.992862701416016
2247,1834,8.694497108459473,13.391201972961426,-984.84033203125,-4.662461280822754,-37.18019485473633,19.992862701416016
2338,1835,-38.216243743896484,-37.20271301269531,-1077.729736328125,8.518908500671387,-9.691998481750488,-9.143226623535156
2333,1835,-38.216243743896484,-37.20271301269531,-1077.729736328125,8.518908500671387,-9.691998481750488,-9.143226623535156
2312,1835,-38.216243743896484,-37.20271301269531,-1077.729736328125,8.518908500671387,-9.691998481750488,-9.143226623535156
2326,1835,-38.216243743896484,-37.20271301269531,-1077.729736328125,8.518908500671387,-9.691998481750488,-9.143226623535156
2269,1835,-38.216243743896484,-37.20271301269531,-1077.729736328125,8.518908500671387,-9.691998481750488,-9.143226623535156
2264,1835,-38.216243743896484,-37.20271301269531,-1077.729736328125,8.518908500671387,-9.691998481750488,-9.143226623535156
2243,1835,-38.216243743896484,-37.20271301269531,-1077.729736328125,8.518908500671387,-9.691998481750488,-9.143226623535156
2257,1835,-38.216243743896484,-37.20271301269531,-1077.729736328125,8.518908500671387,-9.691998481750488,-9.143226623535156
2312,1836,-2.281978130340576,7.772715091705322,-1024.0,1.5170929431915283,19.094789505004883,27.97808265686035
2327,1836,-2.281978130340576,7.772715091705322,-1024.0,1.5170929431915283,19.094789505004883,27.97808265686035
2335,1836,-2.281978130340576,7.772715091705322,-1024.0,1.5170929431915283,19.094789505004883,27.97808265686035
2336,1836,-2.281978130340576,7.772715091705322,-1024.0,1.5170929431915283,19.094789505004883,27.97808265686035
2243,1836,-2.281978130340576,7.772715091705322,-1024.0,1.5170929431915283,19.094789505004883,27.97808265686035
2258,1836,-2.281978130340576,7.772715091705322,-1024.0,1.5170929431915283,19.094789505004883,27.97808265686035
2266,1836,-2.281978130340576,7.772715091705322,-1024.0,1.5170929431915283,19.094789505004883,27.97808265686035
2267,1836,-2.281978130340576,7.772715091705322,-1024.0,1.5170929431915283,19.094789505004883,27.97808265686035
2319,1837,5.393709182739258,6.261880874633789,-998.38232421875,-0.23056411743164062,29.01021957397461,-26.03438949584961
2300,1837,5.393709182739258,6.261880874633789,-998.38232421875,-0.23056411743164062,29.01021957397461,-26.03438949584961
2339,1837,5.393709182739258,6.261880874633789,-998.38232421875,-0.23056411743164062,29.01021957397461,-26.03438949584961
2322,1837,5.393709182739258,6.261880874633789,-998.38232421875,-0.23056411743164062,29.01021957397461,-26.03438949584961
2250,1837,5.393709182739258,6.261880874633789,-998.38232421875,-0.23056411743164062,29.01021957397461,-26.03438949584961
2231,1837,5.393709182739258,6.261880874633789,-998.38232421875,-0.23056411743164062,29.01021957397461,-26.03438949584961
2270,1837,5.393709182739258,6.261880874633789,-998.38232421875,-0.23056411743164062,29.01021957397461,-26.03438949584961
2253,1837,5.393709182739258,6.261880874633789,-998.38232421875,-0.23056411743164062,29.01021957397461,-26.03438949584961
2346,1838,14.225903511047363,4.922475814819336,-1002.8165283203125,-2.0525314807891846,33.000152587890625,-15.041004180908203
2302,1838,14.225903511047363,4.922475814819336,-1002.8165283203125,-2.0525314807891846,33.000152587890625,-15.041004180908203
2319,1838,14.225903511047363,4.922475814819336,-1002.8165283203125,-2.0525314807891846,33.000152587890625,-15.041004180908203
2322,1838,14.225903511047363,4.922475814819336,-1002.8165283203125,-2.0525314807891846,33.000152587890625,-15.041004180908203
2277,1838,14.225903511047363,4.922475814819336,-1002.8165283203125,-2.0525314807891846,33.000152587890625,-15.041004180908203
2233,1838,14.225903511047363,4.922475814819336,-1002.8165283203125,-2.0525314807891846,33.000152587890625,-15.041004180908203
2250,1838,14.225903511047363,4.922475814819336,-1002.8165283203125,-2.0525314807891846,33.000152587890625,-15.041004180908203
2253,1838,14.225903511047363,4.922475814819336,-1002.8165283203125,-2.0525314807891846,33.000152587890625,-15.041004180908203
2306,1839,11.604230880737305,7.423114776611328,-995.9014282226562,-0.6823291778564453,-37.16283416748047,-3.104172945022583
2307,1839,11.604230880737305,7.423114776611328,-995.9014282226562,-0.6823291778564453,-37.16283416748047,-3.104172945022583
2343,1839,11.604230880737305,7.423114776611328,-995.9014282226562,-0.6823291778564453,-37.16283416748047,-3.104172945022583
2321,1839,11.604230880737305,7.423114776611328,-995.9014282226562,-0.6823291778564453,-37.16283416748047,-3.104172945022583
2237,1839,11.604230880737305,7.423114776611328,-995.9014282226562,-0.6823291778564453,-37.16283416748047,-3.104172945022583
2238,1839,11.604230880737305,7.423114776611328,-995.9014282226562,-0.6823291778564453,-37.16283416748047,-3.104172945022583
2274,1839,11.604230880737305,7.423114776611328,-995.9014282226562,-0.6823291778564453,-37.16283416748047,-3.104172945022583
2252,1839,11.604230880737305,7.423114776611328,-995.9014282226562,-0.6823291778564453,-37.16283416748047,-3.104172945022583
2291,1840,-13.377264976501465,-7.364752292633057,-952.3485717773438,13.511780738830566,2.2067558765411377,-2.1134772300720215
2300,1840,-13.377264976501465,-7.364752292633057,-952.3485717773438,13.511780738830566,2.2067558765411377,-2.1134772300720215
2319,1840,-13.377264976501465,-7.364752292633057,-952.3485717773438,13.511780738830566,2.2067558765411377,-2.1134772300720215
2299,1840,-13.377264976501465,-7.364752292633057,-952.3485717773438,13.511780738830566,2.2067558765411377,-2.1134772300720215
2222,1840,-13.377264976501465,-7.364752292633057,-952.3485717773438,13.511780738830566,2.2067558765411377,-2.1134772300720215
2231,1840,-13.377264976501465,-7.364752292633057,-952.3485717773438,13.511780738830566,2.2067558765411377,-2.1134772300720215
2250,1840,-13.377264976501465,-7.364752292633057,-952.3485717773438,13.511780738830566,2.2067558765411377,-2.1134772300720215
2230,1840,-13.377264976501465,-7.364752292633057,-952.3485717773438,13.511780738830566,2.2067558765411377,-2.1134772300720215
2288,1841,0.19995194673538208,-18.559701919555664,-956.5698852539062,-8.175216674804688,0.7506064176559448,-2.8256282806396484
2334,1841,0.19995194673538208,-18.559701919555664,-956.5698852539062,-8.175216674804688,0.7506064176559448,-2.8256282806396484
2303,1841,0.19995194673538208,-18.559701919555664,-956.5698852539062,-8.175216674804688,0.7506064176559448,-2.8256282806396484
2298,1841,0.19995194673538208,-18.559701919555664,-956.5698852539062,-8.175216674804688,0.7506064176559448,-2.8256282806396484
2219,1841,0.19995194673538208,-18.559701919555664,-956.5698852539062,-8.175216674804688,0.7506064176559448,-2.8256282806396484
2265,1841,0.19995194673538208,-18.559701919555664,-956.5698852539062,-8.175216674804688,0.7506064176559448,-2.8256282806396484
2234,1841,0.19995194673538208,-18.559701919555664,-956.5698852539062,-8.175216674804688,0.7506064176559448,-2.8256282806396484
2229,1841,0.19995194673538208,-18.559701919555664,-956.5698852539062,-8.175216674804688,0.7506064176559448,-2.8256282806396484
2304,1842,-12.07504940032959,-9.144486427307129,-957.7213134765625,-13.680490493774414,-5.383694648742676,-3.8717715740203857
2287,1842,-12.07504940032959,-9.144486427307129,-957.7213134765625,-13.680490493774414,-5.383694648742676,-3.8717715740203857
2297,1842,-12.07504940032959,-9.144486427307129,-957.7213134765625,-13.680490493774414,-5.383694648742676,-3.8717715740203857
2317,1842,-12.07504940032959,-9.144486427307129,-957.7213134765625,-13.680490493774414,-5.383694648742676,-3.8717715740203857
2235,1842,-12.07504940032959,-9.144486427307129,-957.7213134765625,-13.680490493774414,-5.383694648742676,-3.8717715740203857
2218,1842,-12.07504940032959,-9.144486427307129,-957.7213134765625,-13.680490493774414,-5.383694648742676,-3.8717715740203857
2228,1842,-12.07504940032959,-9.144486427307129,-957.7213134765625,-13.680490493774414,-5.383694648742676,-3.8717715740203857
2248,1842,-12.07504940032959,-9.144486427307129,-957.7213134765625,-13.680490493774414,-5.383694648742676,-3.8717715740203857
2305,1843,-21.393714904785156,2.4447314739227295,-952.5775756835938,3.797018051147461,3.09270977973938,-0.16495755314826965
2293,1843,-21.393714904785156,2.4447314739227295,-952.5775756835938,3.797018051147461,3.09270977973938,-0.16495755314826965
2292,1843,-21.393714904785156,2.4447314739227295,-952.5775756835938,3.797018051147461,3.09270977973938,-0.16495755314826965
2302,1843,-21.393714904785156,2.4447314739227295,-952.5775756835938,3.797018051147461,3.09270977973938,-0.16495755314826965
2236,1843,-21.393714904785156,2.4447314739227295,-952.5775756835938,3.797018051147461,3.09270977973938,-0.16495755314826965
2224,1843,-21.393714904785156,2.4447314739227295,-952.5775756835938,3.797018051147461,3.09270977973938,-0.16495755314826965
2223,1843,-21.393714904785156,2.4447314739227295,-952.5775756835938,3.797018051147461,3.09270977973938,-0.16495755314826965
2233,1843,-21.393714904785156,2.4447314739227295,-952.5775756835938,3.797018051147461,3.09270977973938,-0.16495755314826965
2317,1844,-18.135120391845703,-2.8883421421051025,-954.9051513671875,-10.661877632141113,-3.7100300788879395,-0.10128281265497208
2297,1844,-18.135120391845703,-2.8883421421051025,-954.9051513671875,-10.661877632141113,-3.7100300788879395,-0.10128281265497208
2286,1844,-18.135120391845703,-2.8883421421051025,-954.9051513671875,-10.661877632141113,-3.7100300788879395,-0.10128281265497208
2306,1844,-18.135120391845703,-2.8883421421051025,-954.9051513671875,-10.661877632141113,-3.7100300788879395,-0.10128281265497208
2248,1844,-18.135120391845703,-2.8883421421051025,-954.9051513671875,-10.661877632141113,-3.7100300788879395,-0.10128281265497208
2228,1844,-18.135120391845703,-2.8883421421051025,-954.9051513671875,-10.661877632141113,-3.7100300788879395,-0.10128281265497208
2217,1844,-18.135120391845703,-2.8883421421051025,-954.9051513671875,-10.661877632141113,-3.7100300788879395,-0.10128281265497208
2237,1844,-18.135120391845703,-2.8883421421051025,-954.9051513671875,-10.661877632141113,-3.7100300788879395,-0.10128281265497208
2341,1845,-3.745316982269287,-0.4672345519065857,-1023.9281616210938,2.571286201477051,-15.55173397064209,-25.94813346862793
2334,1845,-3.745316982269287,-0.4672345519065857,-1023.9281616210938,2.571286201477051,-15.55173397064209,-25.94813346862793
2304,1845,-3.745316982269287,-0.4672345519065857,-1023.9281616210938,2.571286201477051,-15.55173397064209,-25.94813346862793
2329,1845,-3.745316982269287,-0.4672345519065857,-1023.9281616210938,2.571286201477051,-15.55173397064209,-25.94813346862793
2272,1845,-3.745316982269287,-0.4672345519065857,-1023.9281616210938,2.571286201477051,-15.55173397064209,-25.94813346862793
2265,1845,-3.745316982269287,-0.4672345519065857,-1023.9281616210938,2.571286201477051,-15.55173397064209,-25.94813346862793
2235,1845,-3.745316982269287,-0.4672345519065857,-1023.9281616210938,2.571286201477051,-15.55173397064209,-25.94813346862793
2260,1845,-3.745316982269287,-0.4672345519065857,-1023.9281616210938,2.571286201477051,-15.55173397064209,-25.94813346862793
2306,1846,-26.86185073852539,0.6330282688140869,-953.5565795898438,-4.629085540771484,-4.357795238494873,-0.9691445827484131
2286,1846,-26.86185073852539,0.6330282688140869,-953.5565795898438,-4.629085540771484,-4.357795238494873,-0.9691445827484131
2285,1846,-26.86185073852539,0.6330282688140869,-953.5565795898438,-4.629085540771484,-4.357795238494873,-0.9691445827484131
2307,1846,-26.86185073852539,0.6330282688140869,-953.5565795898438,-4.629085540771484,-4.357795238494873,-0.9691445827484131
2237,1846,-26.86185073852539,0.6330282688140869,-953.5565795898438,-4.629085540771484,-4.357795238494873,-0.9691445827484131
2217,1846,-26.86185073852539,0.6330282688140869,-953.5565795898438,-4.629085540771484,-4.357795238494873,-0.9691445827484131
2216,1846,-26.86185073852539,0.6330282688140869,-953.5565795898438,-4.629085540771484,-4.357795238494873,-0.9691445827484131
2238,1846,-26.86185073852539,0.6330282688140869,-953.5565795898438,-4.629085540771484,-4.357795238494873,-0.9691445827484131
2307,1847,-26.173614501953125,2.007966995239258,-950.8419189453125,4.248630046844482,-1.779093623161316,1.1673113107681274
2285,1847,-26.173614501953125,2.007966995239258,-950.8419189453125,4.248630046844482,-1.779093623161316,1.1673113107681274
2284,1847,-26.173614501953125,2.007966995239258,-950.8419189453125,4.248630046844482,-1.779093623161316,1.1673113107681274
2308,1847,-26.173614501953125,2.007966995239258,-950.8419189453125,4.248630046844482,-1.779093623161316,1.1673113107681274
2238,1847,-26.173614501953125,2.007966995239258,-950.8419189453125,4.248630046844482,-1.779093623161316,1.1673113107681274
2216,1847,-26.173614501953125,2.007966995239258,-950.8419189453125,4.248630046844482,-1.779093623161316,1.1673113107681274
2215,1847,-26.173614501953125,2.007966995239258,-950.8419189453125,4.248630046844482,-1.779093623161316,1.1673113107681274
2239,1847,-26.173614501953125,2.007966995239258,-950.8419189453125,4.248630046844482,-1.779093623161316,1.1673113107681274
2338,1848,-24.71145248413086,-28.530073165893555,-1077.5614013671875,7.9632039070129395,-11.245407104492188,-3.743137836456299
2326,1848,-24.71145248413086,-28.530073165893555,-1077.5614013671875,7.9632039070129395,-11.245407104492188,-3.743137836456299
2337,1848,-24.71145248413086,-28.530073165893555,-1077.5614013671875,7.9632039070129395,-11.245407104492188,-3.743137836456299
2331,1848,-24.71145248413086,-28.530073165893555,-1077.5614013671875,7.9632039070129395,-11.245407104492188,-3.743137836456299
2269,1848,-24.71145248413086,-28.530073165893555,-1077.5614013671875,7.9632039070129395,-11.245407104492188,-3.743137836456299
2257,1848,-24.71145248413086,-28.530073165893555,-1077.5614013671875,7.9632039070129395,-11.245407104492188,-3.743137836456299
2268,1848,-24.71145248413086,-28.530073165893555,-1077.5614013671875,7.9632039070129395,-11.245407104492188,-3.743137836456299
2262,1848,-24.71145248413086,-28.530073165893555,-1077.5614013671875,7.9632039070129395,-11.245407104492188,-3.743137836456299
2293,1849,-24.722787857055664,1.5102897882461548,-956.9407958984375,-2.806882381439209,3.7902274131774902,-0.41306746006011963
2305,1849,-24.722787857055664,1.5102897882461548,-956.9407958984375,-2.806882381439209,3.7902274131774902,-0.41306746006011963
2313,1849,-24.722787857055664,1.5102897882461548,-956.9407958984375,-2.806882381439209,3.7902274131774902,-0.41306746006011963
2278,1849,-24.722787857055664,1.5102897882461548,-956.9407958984375,-2.806882381439209,3.7902274131774902,-0.41306746006011963
2224,1849,-24.722787857055664,1.5102897882461548,-956.9407958984375,-2.806882381439209,3.7902274131774902,-0.41306746006011963
2236,1849,-24.722787857055664,1.5102897882461548,-956.9407958984375,-2.806882381439209,3.7902274131774902,-0.41306746006011963
2244,1849,-24.722787857055664,1.5102897882461548,-956.9407958984375,-2.806882381439209,3.7902274131774902,-0.41306746006011963
2209,1849,-24.722787857055664,1.5102897882461548,-956.9407958984375,-2.806882381439209,3.7902274131774902,-0.41306746006011963
2308,1850,-21.0263671875,-4.767007827758789,-953.8027954101562,12.219569206237793,-2.8071985244750977,-0.32852765917778015
2284,1850,-21.0263671875,-4.767007827758789,-953.8027954101562,12.219569206237793,-2.8071985244750977,-0.32852765917778015
2296,1850,-21.0263671875,-4.767007827758789,-953.8027954101562,12.219569206237793,-2.8071985244750977,-0.32852765917778015
2316,1850,-21.0263671875,-4.767007827758789,-953.8027954101562,12.219569206237793,-2.8071985244750977,-0.32852765917778015
2239,1850,-21.0263671875,-4.767007827758789,-953.8027954101562,12.219569206237793,-2.8071985244750977,-0.32852765917778015
2215,1850,-21.0263671875,-4.767007827758789,-953.8027954101562,12.219569206237793,-2.8071985244750977,-0.32852765917778015
2227,1850,-21.0263671875,-4.767007827758789,-953.8027954101562,12.219569206237793,-2.8071985244750977,-0.32852765917778015
2247,1850,-21.0263671875,-4.767007827758789,-953.8027954101562,12.219569206237793,-2.8071985244750977,-0.32852765917778015
2316,1851,-10.89617919921875,-10.156213760375977,-952.3919067382812,13.53896427154541,-3.6411447525024414,2.369137763977051
2296,1851,-10.89617919921875,-10.156213760375977,-952.3919067382812,13.53896427154541,-3.6411447525024414,2.369137763977051
2283,1851,-10.89617919921875,-10.156213760375977,-952.3919067382812,13.53896427154541,-3.6411447525024414,2.369137763977051
2309,1851,-10.89617919921875,-10.156213760375977,-952.3919067382812,13.53896427154541,-3.6411447525024414,2.369137763977051
2247,1851,-10.89617919921875,-10.156213760375977,-952.3919067382812,13.53896427154541,-3.6411447525024414,2.369137763977051
2227,1851,-10.89617919921875,-10.156213760375977,-952.3919067382812,13.53896427154541,-3.6411447525024414,2.369137763977051
2214,1851,-10.89617919921875,-10.156213760375977,-952.3919067382812,13.53896427154541,-3.6411447525024414,2.369137763977051
2240,1851,-10.89617919921875,-10.156213760375977,-952.3919067382812,13.53896427154541,-3.6411447525024414,2.369137763977051
2309,1852,-3.212101459503174,-14.50928783416748,-959.7705078125,11.461068153381348,-3.739466905593872,3.783238172531128
2283,1852,-3.212101459503174,-14.50928783416748,-959.7705078125,11.461068153381348,-3.739466905593872,3.783238172531128
2282,1852,-3.212101459503174,-14.50928783416748,-959.7705078125,11.461068153381348,-3.739466905593872,3.783238172531128
2310,1852,-3.212101459503174,-14.50928783416748,-959.7705078125,11.461068153381348,-3.739466905593872,3.783238172531128
2240,1852,-3.212101459503174,-14.50928783416748,-959.7705078125,11.461068153381348,-3.739466905593872,3.783238172531128
2214,1852,-3.212101459503174,-14.50928783416748,-959.7705078125,11.461068153381348,-3.739466905593872,3.783238172531128
2213,1852,-3.212101459503174,-14.50928783416748,-959.7705078125,11.461068153381348,-3.739466905593872,3.783238172531128
2241,1852,-3.212101459503174,-14.50928783416748,-959.7705078125,11.461068153381348,-3.739466905593872,3.783238172531128
2310,1853,3.396516799926758,-16.963184356689453,-954.7291870117188,8.066475868225098,0.8728897571563721,6.536983013153076
2282,1853,3.396516799926758,-16.963184356689453,-954.7291870117188,8.066475868225098,0.8728897571563721,6.536983013153076
2295,1853,3.396516799926758,-16.963184356689453,-954.7291870117188,8.066475868225098,0.8728897571563721,6.536983013153076
2315,1853,3.396516799926758,-16.963184356689453,-954.7291870117188,8.066475868225098,0.8728897571563721,6.536983013153076
2241,1853,3.396516799926758,-16.963184356689453,-954.7291870117188,8.066475868225098,0.8728897571563721,6.536983013153076
2213,1853,3.396516799926758,-16.963184356689453,-954.7291870117188,8.066475868225098,0.8728897571563721,6.536983013153076
2226,1853,3.396516799926758,-16.963184356689453,-954.7291870117188,8.066475868225098,0.8728897571563721,6.536983013153076
2246,1853,3.396516799926758,-16.963184356689453,-954.7291870117188,8.066475868225098,0.8728897571563721,6.536983013153076
2315,1854,-0.09821155667304993,-31.844640731811523,-950.628173828125,0.7189390659332275,0.9766634106636047,-1.5842429399490356
2295,1854,-0.09821155667304993,-31.844640731811523,-950.628173828125,0.7189390659332275,0.9766634106636047,-1.5842429399490356
2281,1854,-0.09821155667304993,-31.844640731811523,-950.628173828125,0.7189390659332275,0.9766634106636047,-1.5842429399490356
2311,1854,-0.09821155667304993,-31.844640731811523,-950.628173828125,0.7189390659332275,0.9766634106636047,-1.5842429399490356
2246,1854,-0.09821155667304993,-31.844640731811523,-950.628173828125,0.7189390659332275,0.9766634106636047,-1.5842429399490356
2226,1854,-0.09821155667304993,-31.844640731811523,-950.628173828125,0.7189390659332275,0.9766634106636047,-1.5842429399490356
2212,1854,-0.09821155667304993,-31.844640731811523,-950.628173828125,0.7189390659332275,0.9766634106636047,-1.5842429399490356
2242,1854,-0.09821155667304993,-31.844640731811523,-950.628173828125,0.7189390659332275,0.9766634106636047,-1.5842429399490356
2335,1855,-2.0887014865875244,-11.464515686035156,-956.331787109375,-11.526381492614746,0.6407704949378967,6.0534820556640625
2280,1855,-2.0887014865875244,-11.464515686035156,-956.331787109375,-11.526381492614746,0.6407704949378967,6.0534820556640625
2279,1855,-2.0887014865875244,-11.464515686035156,-956.331787109375,-11.526381492614746,0.6407704949378967,6.0534820556640625
2336,1855,-2.0887014865875244,-11.464515686035156,-956.331787109375,-11.526381492614746,0.6407704949378967,6.0534820556640625
2266,1855,-2.0887014865875244,-11.464515686035156,-956.331787109375,-11.526381492614746,0.6407704949378967,6.0534820556640625
2211,1855,-2.0887014865875244,-11.464515686035156,-956.331787109375,-11.526381492614746,0.6407704949378967,6.0534820556640625
2210,1855,-2.0887014865875244,-11.464515686035156,-956.331787109375,-11.526381492614746,0.6407704949378967,6.0534820556640625
2267,1855,-2.0887014865875244,-11.464515686035156,-956.331787109375,-11.526381492614746,0.6407704949378967,6.0534820556640625
2314,1856,-16.847387313842773,-1.0443305969238281,-956.8208618164062,-9.618060111999512,5.530951023101807,1.5702708959579468
2294,1856,-16.847387313842773,-1.0443305969238281,-956.8208618164062,-9.618060111999512,5.530951023101807,1.5702708959579468
2278,1856,-16.847387313842773,-1.0443305969238281,-956.8208618164062,-9.618060111999512,5.530951023101807,1.5702708959579468
2313,1856,-16.847387313842773,-1.0443305969238281,-956.8208618164062,-9.618060111999512,5.530951023101807,1.5702708959579468
2245,1856,-16.847387313842773,-1.0443305969238281,-956.8208618164062,-9.618060111999512,5.530951023101807,1.5702708959579468
2225,1856,-16.847387313842773,-1.0443305969238281,-956.8208618164062,-9.618060111999512,5.530951023101807,1.5702708959579468
2209,1856,-16.847387313842773,-1.0443305969238281,-956.8208618164062,-9.618060111999512,5.530951023101807,1.5702708959579468
2244,1856,-16.847387313842773,-1.0443305969238281,-956.8208618164062,-9.618060111999512,5.530951023101807,1.5702708959579468
2337,1857,16.649063110351562,5.084018230438232,-988.398193359375,-1.226882815361023,43.00139617919922,4.535414695739746
2313,1857,16.649063110351562,5.084018230438232,-988.398193359375,-1.226882815361023,43.00139617919922,4.535414695739746
2305,1857,16.649063110351562,5.084018230438232,-988.398193359375,-1.226882815361023,43.00139617919922,4.535414695739746
2320,1857,16.649063110351562,5.084018230438232,-988.398193359375,-1.226882815361023,43.00139617919922,4.535414695739746
2268,1857,16.649063110351562,5.084018230438232,-988.398193359375,-1.226882815361023,43.00139617919922,4.535414695739746
2244,1857,16.649063110351562,5.084018230438232,-988.398193359375,-1.226882815361023,43.00139617919922,4.535414695739746
2236,1857,16.649063110351562,5.084018230438232,-988.398193359375,-1.226882815361023,43.00139617919922,4.535414695739746
2251,1857,16.649063110351562,5.084018230438232,-988.398193359375,-1.226882815361023,43.00139617919922,4.535414695739746
2336,1858,4.861880779266357,0.49027732014656067,-1009.1055908203125,7.0600104331970215,26.02852439880371,21.271038055419922
2314,1858,4.861880779266357,0.49027732014656067,-1009.1055908203125,7.0600104331970215,26.02852439880371,21.271038055419922
2326,1858,4.861880779266357,0.49027732014656067,-1009.1055908203125,7.0600104331970215,26.02852439880371,21.271038055419922
2312,1858,4.861880779266357,0.49027732014656067,-1009.1055908203125,7.0600104331970215,26.02852439880371,21.271038055419922
2267,1858,4.861880779266357,0.49027732014656067,-1009.1055908203125,7.0600104331970215,26.02852439880371,21.271038055419922
2245,1858,4.861880779266357,0.49027732014656067,-1009.1055908203125,7.0600104331970215,26.02852439880371,21.271038055419922
2257,1858,4.861880779266357,0.49027732014656067,-1009.1055908203125,7.0600104331970215,26.02852439880371,21.271038055419922
2243,1858,4.861880779266357,0.49027732014656067,-1009.1055908203125,7.0600104331970215,26.02852439880371,21.271038055419922
2311,1859,-2.580436944961548,-27.141447067260742,-949.8860473632812,-8.457134246826172,-1.2239657640457153,-1.1500017642974854
2281,1859,-2.580436944961548,-27.141447067260742,-949.8860473632812,-8.457134246826172,-1.2239657640457153,-1.1500017642974854
2280,1859,-2.580436944961548,-27.141447067260742,-949.8860473632812,-8.457134246826172,-1.2239657640457153,-1.1500017642974854
2335,1859,-2.580436944961548,-27.141447067260742,-949.8860473632812,-8.457134246826172,-1.2239657640457153,-1.1500017642974854
2242,1859,-2.580436944961548,-27.141447067260742,-949.8860473632812,-8.457134246826172,-1.2239657640457153,-1.1500017642974854
2212,1859,-2.580436944961548,-27.141447067260742,-949.8860473632812,-8.457134246826172,-1.2239657640457153,-1.1500017642974854
2211,1859,-2.580436944961548,-27.141447067260742,-949.8860473632812,-8.457134246826172,-1.2239657640457153,-1.1500017642974854
2266,1859,-2.580436944961548,-27.141447067260742,-949.8860473632812,-8.457134246826172,-1.2239657640457153,-1.1500017642974854
2320,1860,7.165767669677734,7.016346454620361,-998.93212890625,-0.2533215880393982,40.131690979003906,-5.010993003845215
2305,1860,7.165767669677734,7.016346454620361,-998.93212890625,-0.2533215880393982,40.131690979003906,-5.010993003845215
2302,1860,7.165767669677734,7.016346454620361,-998.93212890625,-0.2533215880393982,40.131690979003906,-5.010993003845215
2346,1860,7.165767669677734,7.016346454620361,-998.93212890625,-0.2533215880393982,40.131690979003906,-5.010993003845215
2251,1860,7.165767669677734,7.016346454620361,-998.93212890625,-0.2533215880393982,40.131690979003906,-5.010993003845215
2236,1860,7.165767669677734,7.016346454620361,-998.93212890625,-0.2533215880393982,40.131690979003906,-5.010993003845215
2233,1860,7.165767669677734,7.016346454620361,-998.93212890625,-0.2533215880393982,40.131690979003906,-5.010993003845215
2277,1860,7.165767669677734,7.016346454620361,-998.93212890625,-0.2533215880393982,40.131690979003906,-5.010993003845215
2331,1861,-24.101472854614258,-33.834896087646484,-1061.4906005859375,-9.273314476013184,-6.607730388641357,0.6773476600646973
2346,1861,-24.101472854614258,-33.834896087646484,-1061.4906005859375,-9.273314476013184,-6.607730388641357,0.6773476600646973
2322,1861,-24.101472854614258,-33.834896087646484,-1061.4906005859375,-9.273314476013184,-6.607730388641357,0.6773476600646973
2330,1861,-24.101472854614258,-33.834896087646484,-1061.4906005859375,-9.273314476013184,-6.607730388641357,0.6773476600646973
2262,1861,-24.101472854614258,-33.834896087646484,-1061.4906005859375,-9.273314476013184,-6.607730388641357,0.6773476600646973
2277,1861,-24.101472854614258,-33.834896087646484,-1061.4906005859375,-9.273314476013184,-6.607730388641357,0.6773476600646973
2253,1861,-24.101472854614258,-33.834896087646484,-1061.4906005859375,-9.273314476013184,-6.607730388641357,0.6773476600646973
2261,1861,-24.101472854614258,-33.834896087646484,-1061.4906005859375,-9.273314476013184,-6.607730388641357,0.6773476600646973
2301,1862,6.764260768890381,8.316190719604492,-995.9188232421875,-0.9363284707069397,8.59935474395752,-38.749393463134766
2318,1862,6.764260768890381,8.316190719604492,-995.9188232421875,-0.9363284707069397,8.59935474395752,-38.749393463134766
2340,1862,6.764260768890381,8.316190719604492,-995.9188232421875,-0.9363284707069397,8.59935474395752,-38.749393463134766
2325,1862,6.764260768890381,8.316190719604492,-995.9188232421875,-0.9363284707069397,8.59935474395752,-38.749393463134766
2232,1862,6.764260768890381,8.316190719604492,-995.9188232421875,-0.9363284707069397,8.59935474395752,-38.749393463134766
2249,1862,6.764260768890381,8.316190719604492,-995.9188232421875,-0.9363284707069397,8.59935474395752,-38.749393463134766
2271,1862,6.764260768890381,8.316190719604492,-995.9188232421875,-0.9363284707069397,8.59935474395752,-38.749393463134766
2256,1862,6.764260768890381,8.316190719604492,-995.9188232421875,-0.9363284707069397,8.59935474395752,-38.749393463134766
2325,1863,-36.554931640625,-2.3199610710144043,-1070.5582275390625,-2.1695570945739746,-1.5397711992263794,1.0182310342788696
2340,1863,-36.554931640625,-2.3199610710144043,-1070.5582275390625,-2.1695570945739746,-1.5397711992263794,1.0182310342788696
2324,1863,-36.554931640625,-2.3199610710144043,-1070.5582275390625,-2.1695570945739746,-1.5397711992263794,1.0182310342788696
2330,1863,-36.554931640625,-2.3199610710144043,-1070.5582275390625,-2.1695570945739746,-1.5397711992263794,1.0182310342788696
2256,1863,-36.554931640625,-2.3199610710144043,-1070.5582275390625,-2.1695570945739746,-1.5397711992263794,1.0182310342788696
2271,1863,-36.554931640625,-2.3199610710144043,-1070.5582275390625,-2.1695570945739746,-1.5397711992263794,1.0182310342788696
2255,1863,-36.554931640625,-2.3199610710144043,-1070.5582275390625,-2.1695570945739746,-1.5397711992263794,1.0182310342788696
2261,1863,-36.554931640625,-2.3199610710144043,-1070.5582275390625,-2.1695570945739746,-1.5397711992263794,1.0182310342788696
2327,1864,16.927749633789062,11.288226127624512,-965.5186767578125,-0.859128475189209,7.209714889526367,46.043190002441406
2315,1864,16.927749633789062,11.288226127624512,-965.5186767578125,-0.859128475189209,7.209714889526367,46.043190002441406
2311,1864,16.927749633789062,11.288226127624512,-965.5186767578125,-0.859128475189209,7.209714889526367,46.043190002441406
2335,1864,16.927749633789062,11.288226127624512,-965.5186767578125,-0.859128475189209,7.209714889526367,46.043190002441406
2258,1864,16.927749633789062,11.288226127624512,-965.5186767578125,-0.859128475189209,7.209714889526367,46.043190002441406
2246,1864,16.927749633789062,11.288226127624512,-965.5186767578125,-0.859128475189209,7.209714889526367,46.043190002441406
2242,1864,16.927749633789062,11.288226127624512,-965.5186767578125,-0.859128475189209,7.209714889526367,46.043190002441406
2266,1864,16.927749633789062,11.288226127624512,-965.5186767578125,-0.859128475189209,7.209714889526367,46.043190002441406
2325,1865,-25.778453826904297,-20.39957618713379,-1082.8187255859375,-12.213126182556152,-3.1531198024749756,4.977440357208252
2330,1865,-25.778453826904297,-20.39957618713379,-1082.8187255859375,-12.213126182556152,-3.1531198024749756,4.977440357208252
2322,1865,-25.778453826904297,-20.39957618713379,-1082.8187255859375,-12.213126182556152,-3.1531198024749756,4.977440357208252
2339,1865,-25.778453826904297,-20.39957618713379,-1082.8187255859375,-12.213126182556152,-3.1531198024749756,4.977440357208252
2256,1865,-25.778453826904297,-20.39957618713379,-1082.8187255859375,-12.213126182556152,-3.1531198024749756,4.977440357208252
2261,1865,-25.778453826904297,-20.39957618713379,-1082.8187255859375,-12.213126182556152,-3.1531198024749756,4.977440357208252
2253,1865,-25.778453826904297,-20.39957618713379,-1082.8187255859375,-12.213126182556152,-3.1531198024749756,4.977440357208252
2270,1865,-25.778453826904297,-20.39957618713379,-1082.8187255859375,-12.213126182556152,-3.1531198024749756,4.977440357208252
2303,1866,5.839669227600098,9.665260314941406,-998.5197143554688,5.405393600463867,-15.50767707824707,-38.105899810791016
2334,1866,5.839669227600098,9.665260314941406,-998.5197143554688,5.405393600463867,-15.50767707824707,-38.105899810791016
2341,1866,5.839669227600098,9.665260314941406,-998.5197143554688,5.405393600463867,-15.50767707824707,-38.105899810791016
2324,1866,5.839669227600098,9.665260314941406,-998.5197143554688,5.405393600463867,-15.50767707824707,-38.105899810791016
2234,1866,5.839669227600098,9.665260314941406,-998.5197143554688,5.405393600463867,-15.50767707824707,-38.105899810791016
2265,1866,5.839669227600098,9.665260314941406,-998.5197143554688,5.405393600463867,-15.50767707824707,-38.105899810791016
2272,1866,5.839669227600098,9.665260314941406,-998.5197143554688,5.405393600463867,-15.50767707824707,-38.105899810791016
2255,1866,5.839669227600098,9.665260314941406,-998.5197143554688,5.405393600463867,-15.50767707824707,-38.105899810791016
2345,1867,-35.96510314941406,-24.217121124267578,-1090.7554931640625,1.6972405910491943,-3.113771915435791,-13.153362274169922
2327,1867,-35.96510314941406,-24.217121124267578,-1090.7554931640625,1.6972405910491943,-3.113771915435791,-13.153362274169922
2312,1867,-35.96510314941406,-24.217121124267578,-1090.7554931640625,1.6972405910491943,-3.113771915435791,-13.153362274169922
2333,1867,-35.96510314941406,-24.217121124267578,-1090.7554931640625,1.6972405910491943,-3.113771915435791,-13.153362274169922
2276,1867,-35.96510314941406,-24.217121124267578,-1090.7554931640625,1.6972405910491943,-3.113771915435791,-13.153362274169922
2258,1867,-35.96510314941406,-24.217121124267578,-1090.7554931640625,1.6972405910491943,-3.113771915435791,-13.153362274169922
2243,1867,-35.96510314941406,-24.217121124267578,-1090.7554931640625,1.6972405910491943,-3.113771915435791,-13.153362274169922
2264,1867,-35.96510314941406,-24.217121124267578,-1090.7554931640625,1.6972405910491943,-3.113771915435791,-13.153362274169922
2321,1868,2.5905115604400635,-33.30304718017578,-1066.7325439453125,1.4461750984191895,-2.8970844745635986,-1.3749545812606812
2343,1868,2.5905115604400635,-33.30304718017578,-1066.7325439453125,1.4461750984191895,-2.8970844745635986,-1.3749545812606812
2328,1868,2.5905115604400635,-33.30304718017578,-1066.7325439453125,1.4461750984191895,-2.8970844745635986,-1.3749545812606812
2332,1868,2.5905115604400635,-33.30304718017578,-1066.7325439453125,1.4461750984191895,-2.8970844745635986,-1.3749545812606812
2252,1868,2.5905115604400635,-33.30304718017578,-1066.7325439453125,1.4461750984191895,-2.8970844745635986,-1.3749545812606812
2274,1868,2.5905115604400635,-33.30304718017578,-1066.7325439453125,1.4461750984191895,-2.8970844745635986,-1.3749545812606812
2259,1868,2.5905115604400635,-33.30304718017578,-1066.7325439453125,1.4461750984191895,-2.8970844745635986,-1.3749545812606812
2263,1868,2.5905115604400635,-33.30304718017578,-1066.7325439453125,1.4461750984191895,-2.8970844745635986,-1.3749545812606812
2344,1869,5.706663131713867,3.4139792919158936,-1008.611083984375,1.3256915807724,-27.303693771362305,24.28911590576172
2316,1869,5.706663131713867,3.4139792919158936,-1008.611083984375,1.3256915807724,-27.303693771362305,24.28911590576172
2309,1869,5.706663131713867,3.4139792919158936,-1008.611083984375,1.3256915807724,-27.303693771362305,24.28911590576172
2323,1869,5.706663131713867,3.4139792919158936,-1008.611083984375,1.3256915807724,-27.303693771362305,24.28911590576172
2275,1869,5.706663131713867,3.4139792919158936,-1008.611083984375,1.3256915807724,-27.303693771362305,24.28911590576172
2247,1869,5.706663131713867,3.4139792919158936,-1008.611083984375,1.3256915807724,-27.303693771362305,24.28911590576172
2240,1869,5.706663131713867,3.4139792919158936,-1008.611083984375,1.3256915807724,-27.303693771362305,24.28911590576172
2254,1869,5.706663131713867,3.4139792919158936,-1008.611083984375,1.3256915807724,-27.303693771362305,24.28911590576172
2333,1870,-37.521602630615234,-29.877168655395508,-1058.8037109375,-8.755101203918457,5.58981466293335,-5.088245391845703
2332,1870,-37.521602630615234,-29.877168655395508,-1058.8037109375,-8.755101203918457,5.58981466293335,-5.088245391845703
2323,1870,-37.521602630615234,-29.877168655395508,-1058.8037109375,-8.755101203918457,5.58981466293335,-5.088245391845703
2345,1870,-37.521602630615234,-29.877168655395508,-1058.8037109375,-8.755101203918457,5.58981466293335,-5.088245391845703
2264,1870,-37.521602630615234,-29.877168655395508,-1058.8037109375,-8.755101203918457,5.58981466293335,-5.088245391845703
2263,1870,-37.521602630615234,-29.877168655395508,-1058.8037109375,-8.755101203918457,5.58981466293335,-5.088245391845703
2254,1870,-37.521602630615234,-29.877168655395508,-1058.8037109375,-8.755101203918457,5.58981466293335,-5.088245391845703
2276,1870,-37.521602630615234,-29.877168655395508,-1058.8037109375,-8.755101203918457,5.58981466293335,-5.088245391845703
2333,1871,-37.168739318847656,-43.41300964355469,-1029.4229736328125,-0.6592587828636169,-0.9210255146026611,1.4403188228607178
2338,1871,-37.168739318847656,-43.41300964355469,-1029.4229736328125,-0.6592587828636169,-0.9210255146026611,1.4403188228607178
2331,1871,-37.168739318847656,-43.41300964355469,-1029.4229736328125,-0.6592587828636169,-0.9210255146026611,1.4403188228607178
2330,1871,-37.168739318847656,-43.41300964355469,-1029.4229736328125,-0.6592587828636169,-0.9210255146026611,1.4403188228607178
2264,1871,-37.168739318847656,-43.41300964355469,-1029.4229736328125,-0.6592587828636169,-0.9210255146026611,1.4403188228607178
2269,1871,-37.168739318847656,-43.41300964355469,-1029.4229736328125,-0.6592587828636169,-0.9210255146026611,1.4403188228607178
2262,1871,-37.168739318847656,-43.41300964355469,-1029.4229736328125,-0.6592587828636169,-0.9210255146026611,1.4403188228607178
2261,1871,-37.168739318847656,-43.41300964355469,-1029.4229736328125,-0.6592587828636169,-0.9210255146026611,1.4403188228607178
2323,1872,-16.190940856933594,-25.312528610229492,-1085.18603515625,-9.794147491455078,3.386019468307495,-2.2869300842285156
2332,1872,-16.190940856933594,-25.312528610229492,-1085.18603515625,-9.794147491455078,3.386019468307495,-2.2869300842285156
2328,1872,-16.190940856933594,-25.312528610229492,-1085.18603515625,-9.794147491455078,3.386019468307495,-2.2869300842285156
2344,1872,-16.190940856933594,-25.312528610229492,-1085.18603515625,-9.794147491455078,3.386019468307495,-2.2869300842285156
2254,1872,-16.190940856933594,-25.312528610229492,-1085.18603515625,-9.794147491455078,3.386019468307495,-2.2869300842285156
2263,1872,-16.190940856933594,-25.312528610229492,-1085.18603515625,-9.794147491455078,3.386019468307495,-2.2869300842285156
2259,1872,-16.190940856933594,-25.312528610229492,-1085.18603515625,-9.794147491455078,3.386019468307495,-2.2869300842285156
2275,1872,-16.190940856933594,-25.312528610229492,-1085.18603515625,-9.794147491455078,3.386019468307495,-2.2869300842285156
2334,1873,-4.432395935058594,-14.381793975830078,-957.1817016601562,-11.995197296142578,-3.0217723846435547,-5.757039546966553
2288,1873,-4.432395935058594,-14.381793975830078,-957.1817016601562,-11.995197296142578,-3.0217723846435547,-5.757039546966553
2287,1873,-4.432395935058594,-14.381793975830078,-957.1817016601562,-11.995197296142578,-3.0217723846435547,-5.757039546966553
2304,1873,-4.432395935058594,-14.381793975830078,-957.1817016601562,-11.995197296142578,-3.0217723846435547,-5.757039546966553
2265,1873,-4.432395935058594,-14.381793975830078,-957.1817016601562,-11.995197296142578,-3.0217723846435547,-5.757039546966553
2219,1873,-4.432395935058594,-14.381793975830078,-957.1817016601562,-11.995197296142578,-3.0217723846435547,-5.757039546966553
2218,1873,-4.432395935058594,-14.381793975830078,-957.1817016601562,-11.995197296142578,-3.0217723846435547,-5.757039546966553
2235,1873,-4.432395935058594,-14.381793975830078,-957.1817016601562,-11.995197296142578,-3.0217723846435547,-5.757039546966553
2336,1874,-10.447391510009766,-5.401892185211182,-962.3788452148438,-11.492679595947266,4.261133670806885,3.2610182762145996
2279,1874,-10.447391510009766,-5.401892185211182,-962.3788452148438,-11.492679595947266,4.261133670806885,3.2610182762145996
2294,1874,-10.447391510009766,-5.401892185211182,-962.3788452148438,-11.492679595947266,4.261133670806885,3.2610182762145996
2314,1874,-10.447391510009766,-5.401892185211182,-962.3788452148438,-11.492679595947266,4.261133670806885,3.2610182762145996
2267,1874,-10.447391510009766,-5.401892185211182,-962.3788452148438,-11.492679595947266,4.261133670806885,3.2610182762145996
2210,1874,-10.447391510009766,-5.401892185211182,-962.3788452148438,-11.492679595947266,4.261133670806885,3.2610182762145996
2225,1874,-10.447391510009766,-5.401892185211182,-962.3788452148438,-11.492679595947266,4.261133670806885,3.2610182762145996
2245,1874,-10.447391510009766,-5.401892185211182,-962.3788452148438,-11.492679595947266,4.261133670806885,3.2610182762145996
2313,1875,6.370453834533691,-1.3647570610046387,-1022.5668334960938,3.157474994659424,29.472248077392578,16.99968719482422
2337,1875,6.370453834533691,-1.3647570610046387,-1022.5668334960938,3.157474994659424,29.472248077392578,16.99968719482422
2326,1875,6.370453834533691,-1.3647570610046387,-1022.5668334960938,3.157474994659424,29.472248077392578,16.99968719482422
2314,1875,6.370453834533691,-1.3647570610046387,-1022.5668334960938,3.157474994659424,29.472248077392578,16.99968719482422
2244,1875,6.370453834533691,-1.3647570610046387,-1022.5668334960938,3.157474994659424,29.472248077392578,16.99968719482422
2268,1875,6.370453834533691,-1.3647570610046387,-1022.5668334960938,3.157474994659424,29.472248077392578,16.99968719482422
2257,1875,6.370453834533691,-1.3647570610046387,-1022.5668334960938,3.157474994659424,29.472248077392578,16.99968719482422
2245,1875,6.370453834533691,-1.3647570610046387,-1022.5668334960938,3.157474994659424,29.472248077392578,16.99968719482422
2337,1876,-11.852083206176758,-34.1357536315918,-1099.248779296875,1.2294942140579224,-6.861668586730957,-0.5917713642120361
2320,1876,-11.852083206176758,-34.1357536315918,-1099.248779296875,1.2294942140579224,-6.861668586730957,-0.5917713642120361
2346,1876,-11.852083206176758,-34.1357536315918,-1099.248779296875,1.2294942140579224,-6.861668586730957,-0.5917713642120361
2331,1876,-11.852083206176758,-34.1357536315918,-1099.248779296875,1.2294942140579224,-6.861668586730957,-0.5917713642120361
2268,1876,-11.852083206176758,-34.1357536315918,-1099.248779296875,1.2294942140579224,-6.861668586730957,-0.5917713642120361
2251,1876,-11.852083206176758,-34.1357536315918,-1099.248779296875,1.2294942140579224,-6.861668586730957,-0.5917713642120361
2277,1876,-11.852083206176758,-34.1357536315918,-1099.248779296875,1.2294942140579224,-6.861668586730957,-0.5917713642120361
2262,1876,-11.852083206176758,-34.1357536315918,-1099.248779296875,1.2294942140579224,-6.861668586730957,-0.5917713642120361
2339,1877,14.218339920043945,7.559645175933838,-990.1831665039062,-3.1618807315826416,25.275074005126953,-34.65861892700195
2300,1877,14.218339920043945,7.559645175933838,-990.1831665039062,-3.1618807315826416,25.275074005126953,-34.65861892700195
2301,1877,14.218339920043945,7.559645175933838,-990.1831665039062,-3.1618807315826416,25.275074005126953,-34.65861892700195
2325,1877,14.218339920043945,7.559645175933838,-990.1831665039062,-3.1618807315826416,25.275074005126953,-34.65861892700195
2270,1877,14.218339920043945,7.559645175933838,-990.1831665039062,-3.1618807315826416,25.275074005126953,-34.65861892700195
2231,1877,14.218339920043945,7.559645175933838,-990.1831665039062,-3.1618807315826416,25.275074005126953,-34.65861892700195
2232,1877,14.218339920043945,7.559645175933838,-990.1831665039062,-3.1618807315826416,25.275074005126953,-34.65861892700195
2256,1877,14.218339920043945,7.559645175933838,-990.1831665039062,-3.1618807315826416,25.275074005126953,-34.65861892700195
2340,1878,6.093214988708496,8.43167495727539,-1000.0850830078125,-1.414817214012146,2.602342128753662,-37.94000244140625
2318,1878,6.093214988708496,8.43167495727539,-1000.0850830078125,-1.414817214012146,2.602342128753662,-37.94000244140625
2303,1878,6.093214988708496,8.43167495727539,-1000.0850830078125,-1.414817214012146,2.602342128753662,-37.94000244140625
2324,1878,6.093214988708496,8.43167495727539,-1000.0850830078125,-1.414817214012146,2.602342128753662,-37.94000244140625
2271,1878,6.093214988708496,8.43167495727539,-1000.0850830078125,-1.414817214012146,2.602342128753662,-37.94000244140625
2249,1878,6.093214988708496,8.43167495727539,-1000.0850830078125,-1.414817214012146,2.602342128753662,-37.94000244140625
2234,1878,6.093214988708496,8.43167495727539,-1000.0850830078125,-1.414817214012146,2.602342128753662,-37.94000244140625
2255,1878,6.093214988708496,8.43167495727539,-1000.0850830078125,-1.414817214012146,2.602342128753662,-37.94000244140625
2342,1879,10.432002067565918,7.619140625,-1003.3251953125,5.389597415924072,-33.79791259765625,-18.90427589416504
2317,1879,10.432002067565918,7.619140625,-1003.3251953125,5.389597415924072,-33.79791259765625,-18.90427589416504
2306,1879,10.432002067565918,7.619140625,-1003.3251953125,5.389597415924072,-33.79791259765625,-18.90427589416504
2321,1879,10.432002067565918,7.619140625,-1003.3251953125,5.389597415924072,-33.79791259765625,-18.90427589416504
2273,1879,10.432002067565918,7.619140625,-1003.3251953125,5.389597415924072,-33.79791259765625,-18.90427589416504
2248,1879,10.432002067565918,7.619140625,-1003.3251953125,5.389597415924072,-33.79791259765625,-18.90427589416504
2237,1879,10.432002067565918,7.619140625,-1003.3251953125,5.389597415924072,-33.79791259765625,-18.90427589416504
2252,1879,10.432002067565918,7.619140625,-1003.3251953125,5.389597415924072,-33.79791259765625,-18.90427589416504
2343,1880,7.712419033050537,7.890967845916748,-994.7965698242188,-0.2524643838405609,-39.794227600097656,4.00028657913208
2307,1880,7.712419033050537,7.890967845916748,-994.7965698242188,-0.2524643838405609,-39.794227600097656,4.00028657913208
2308,1880,7.712419033050537,7.890967845916748,-994.7965698242188,-0.2524643838405609,-39.794227600097656,4.00028657913208
2328,1880,7.712419033050537,7.890967845916748,-994.7965698242188,-0.2524643838405609,-39.794227600097656,4.00028657913208
2274,1880,7.712419033050537,7.890967845916748,-994.7965698242188,-0.2524643838405609,-39.794227600097656,4.00028657913208
2238,1880,7.712419033050537,7.890967845916748,-994.7965698242188,-0.2524643838405609,-39.794227600097656,4.00028657913208
2239,1880,7.712419033050537,7.890967845916748,-994.7965698242188,-0.2524643838405609,-39.794227600097656,4.00028657913208
2259,1880,7.712419033050537,7.890967845916748,-994.7965698242188,-0.2524643838405609,-39.794227600097656,4.00028657913208
2345,1881,-1.839121699333191,5.882052898406982,-1024.841064453125,0.9097294807434082,-11.047700881958008,28.546707153320312
2310,1881,-1.839121699333191,5.882052898406982,-1024.841064453125,0.9097294807434082,-11.047700881958008,28.546707153320312
2315,1881,-1.839121699333191,5.882052898406982,-1024.841064453125,0.9097294807434082,-11.047700881958008,28.546707153320312
2327,1881,-1.839121699333191,5.882052898406982,-1024.841064453125,0.9097294807434082,-11.047700881958008,28.546707153320312
2276,1881,-1.839121699333191,5.882052898406982,-1024.841064453125,0.9097294807434082,-11.047700881958008,28.546707153320312
2241,1881,-1.839121699333191,5.882052898406982,-1024.841064453125,0.9097294807434082,-11.047700881958008,28.546707153320312
2246,1881,-1.839121699333191,5.882052898406982,-1024.841064453125,0.9097294807434082,-11.047700881958008,28.546707153320312
2258,1881,-1.839121699333191,5.882052898406982,-1024.841064453125,0.9097294807434082,-11.047700881958008,28.546707153320312
2370,1882,-8.171426773071289,34.41928482055664,-931.248779296875,-14.91907787322998,2.3847861289978027,-15.690034866333008
2359,1882,-8.171426773071289,34.41928482055664,-931.248779296875,-14.91907787322998,2.3847861289978027,-15.690034866333008
2358,1882,-8.171426773071289,34.41928482055664,-931.248779296875,-14.91907787322998,2.3847861289978027,-15.690034866333008
2387,1882,-8.171426773071289,34.41928482055664,-931.248779296875,-14.91907787322998,2.3847861289978027,-15.690034866333008
2301,1882,-8.171426773071289,34.41928482055664,-931.248779296875,-14.91907787322998,2.3847861289978027,-15.690034866333008
2290,1882,-8.171426773071289,34.41928482055664,-931.248779296875,-14.91907787322998,2.3847861289978027,-15.690034866333008
2289,1882,-8.171426773071289,34.41928482055664,-931.248779296875,-14.91907787322998,2.3847861289978027,-15.690034866333008
2318,1882,-8.171426773071289,34.41928482055664,-931.248779296875,-14.91907787322998,2.3847861289978027,-15.690034866333008
2387,1883,-14.081988334655762,40.01649856567383,-932.841796875,-0.6047699451446533,1.7618680000305176,-15.036540985107422
2358,1883,-14.081988334655762,40.01649856567383,-932.841796875,-0.6047699451446533,1.7618680000305176,-15.036540985107422
2367,1883,-14.081988334655762,40.01649856567383,-932.841796875,-0.6047699451446533,1.7618680000305176,-15.036540985107422
2372,1883,-14.081988334655762,40.01649856567383,-932.841796875,-0.6047699451446533,1.7618680000305176,-15.036540985107422
2318,1883,-14.081988334655762,40.01649856567383,-932.841796875,-0.6047699451446533,1.7618680000305176,-15.036540985107422
2289,1883,-14.081988334655762,40.01649856567383,-932.841796875,-0.6047699451446533,1.7618680000305176,-15.036540985107422
2298,1883,-14.081988334655762,40.01649856567383,-932.841796875,-0.6047699451446533,1.7618680000305176,-15.036540985107422
2303,1883,-14.081988334655762,40.01649856567383,-932.841796875,-0.6047699451446533,1.7618680000305176,-15.036540985107422
2368,1884,31.35956573486328,-4.392003536224365,-933.6504516601562,-19.938091278076172,16.36913299560547,-6.942782402038574
2388,1884,31.35956573486328,-4.392003536224365,-933.6504516601562,-19.938091278076172,16.36913299560547,-6.942782402038574
2371,1884,31.35956573486328,-4.392003536224365,-933.6504516601562,-19.938091278076172,16.36913299560547,-6.942782402038574
2361,1884,31.35956573486328,-4.392003536224365,-933.6504516601562,-19.938091278076172,16.36913299560547,-6.942782402038574
2299,1884,31.35956573486328,-4.392003536224365,-933.6504516601562,-19.938091278076172,16.36913299560547,-6.942782402038574
2319,1884,31.35956573486328,-4.392003536224365,-933.6504516601562,-19.938091278076172,16.36913299560547,-6.942782402038574
2302,1884,31.35956573486328,-4.392003536224365,-933.6504516601562,-19.938091278076172,16.36913299560547,-6.942782402038574
2292,1884,31.35956573486328,-4.392003536224365,-933.6504516601562,-19.938091278076172,16.36913299560547,-6.942782402038574
2359,1885,6.9999775886535645,26.075410842895508,-928.7935791015625,-24.94768524169922,11.858885765075684,-15.85384750366211
2370,1885,6.9999775886535645,26.075410842895508,-928.7935791015625,-24.94768524169922,11.858885765075684,-15.85384750366211
2369,1885,6.9999775886535645,26.075410842895508,-928.7935791015625,-24.94768524169922,11.858885765075684,-15.85384750366211
2360,1885,6.9999775886535645,26.075410842895508,-928.7935791015625,-24.94768524169922,11.858885765075684,-15.85384750366211
2290,1885,6.9999775886535645,26.075410842895508,-928.7935791015625,-24.94768524169922,11.858885765075684,-15.85384750366211
2301,1885,6.9999775886535645,26.075410842895508,-928.7935791015625,-24.94768524169922,11.858885765075684,-15.85384750366211
2300,1885,6.9999775886535645,26.075410842895508,-928.7935791015625,-24.94768524169922,11.858885765075684,-15.85384750366211
2291,1885,6.9999775886535645,26.075410842895508,-928.7935791015625,-24.94768524169922,11.858885765075684,-15.85384750366211
2398,1886,-118.08390808105469,-126.57423400878906,-996.1497192382812,-2.647343873977661,45.88447570800781,26.698270797729492
2411,1886,-118.08390808105469,-126.57423400878906,-996.1497192382812,-2.647343873977661,45.88447570800781,26.698270797729492
2390,1886,-118.08390808105469,-126.57423400878906,-996.1497192382812,-2.647343873977661,45.88447570800781,26.698270797729492
2401,1886,-118.08390808105469,-126.57423400878906,-996.1497192382812,-2.647343873977661,45.88447570800781,26.698270797729492
2329,1886,-118.08390808105469,-126.57423400878906,-996.1497192382812,-2.647343873977661,45.88447570800781,26.698270797729492
2342,1886,-118.08390808105469,-126.57423400878906,-996.1497192382812,-2.647343873977661,45.88447570800781,26.698270797729492
2321,1886,-118.08390808105469,-126.57423400878906,-996.1497192382812,-2.647343873977661,45.88447570800781,26.698270797729492
2332,1886,-118.08390808105469,-126.57423400878906,-996.1497192382812,-2.647343873977661,45.88447570800781,26.698270797729492
2414,1887,-99.9042739868164,-77.47891998291016,-1083.6693115234375,-22.205625534057617,40.50202178955078,-55.22420883178711
2392,1887,-99.9042739868164,-77.47891998291016,-1083.6693115234375,-22.205625534057617,40.50202178955078,-55.22420883178711
2378,1887,-99.9042739868164,-77.47891998291016,-1083.6693115234375,-22.205625534057617,40.50202178955078,-55.22420883178711
2379,1887,-99.9042739868164,-77.47891998291016,-1083.6693115234375,-22.205625534057617,40.50202178955078,-55.22420883178711
2345,1887,-99.9042739868164,-77.47891998291016,-1083.6693115234375,-22.205625534057617,40.50202178955078,-55.22420883178711
2323,1887,-99.9042739868164,-77.47891998291016,-1083.6693115234375,-22.205625534057617,40.50202178955078,-55.22420883178711
2309,1887,-99.9042739868164,-77.47891998291016,-1083.6693115234375,-22.205625534057617,40.50202178955078,-55.22420883178711
2310,1887,-99.9042739868164,-77.47891998291016,-1083.6693115234375,-22.205625534057617,40.50202178955078,-55.22420883178711
2402,1888,-139.47125244140625,-137.77157592773438,-1029.0357666015625,-2.5005977153778076,11.388812065124512,10.826315879821777
2399,1888,-139.47125244140625,-137.77157592773438,-1029.0357666015625,-2.5005977153778076,11.388812065124512,10.826315879821777
2398,1888,-139.47125244140625,-137.77157592773438,-1029.0357666015625,-2.5005977153778076,11.388812065124512,10.826315879821777
2401,1888,-139.47125244140625,-137.77157592773438,-1029.0357666015625,-2.5005977153778076,11.388812065124512,10.826315879821777
2333,1888,-139.47125244140625,-137.77157592773438,-1029.0357666015625,-2.5005977153778076,11.388812065124512,10.826315879821777
2330,1888,-139.47125244140625,-137.77157592773438,-1029.0357666015625,-2.5005977153778076,11.388812065124512,10.826315879821777
2329,1888,-139.47125244140625,-137.77157592773438,-1029.0357666015625,-2.5005977153778076,11.388812065124512,10.826315879821777
2332,1888,-139.47125244140625,-137.77157592773438,-1029.0357666015625,-2.5005977153778076,11.388812065124512,10.826315879821777
2393,1889,-127.06539154052734,-125.0369873046875,-988.2340087890625,-2.33229660987854,18.288959503173828,38.476802825927734
2410,1889,-127.06539154052734,-125.0369873046875,-988.2340087890625,-2.33229660987854,18.288959503173828,38.476802825927734
2398,1889,-127.06539154052734,-125.0369873046875,-988.2340087890625,-2.33229660987854,18.288959503173828,38.476802825927734
2399,1889,-127.06539154052734,-125.0369873046875,-988.2340087890625,-2.33229660987854,18.288959503173828,38.476802825927734
2324,1889,-127.06539154052734,-125.0369873046875,-988.2340087890625,-2.33229660987854,18.288959503173828,38.476802825927734
2341,1889,-127.06539154052734,-125.0369873046875,-988.2340087890625,-2.33229660987854,18.288959503173828,38.476802825927734
2329,1889,-127.06539154052734,-125.0369873046875,-988.2340087890625,-2.33229660987854,18.288959503173828,38.476802825927734
2330,1889,-127.06539154052734,-125.0369873046875,-988.2340087890625,-2.33229660987854,18.288959503173828,38.476802825927734
2373,1890,-88.79257202148438,-96.60990905761719,-1080.2889404296875,27.063552856445312,51.640987396240234,39.128883361816406
2386,1890,-88.79257202148438,-96.60990905761719,-1080.2889404296875,27.063552856445312,51.640987396240234,39.128883361816406
2411,1890,-88.79257202148438,-96.60990905761719,-1080.2889404296875,27.063552856445312,51.640987396240234,39.128883361816406
2398,1890,-88.79257202148438,-96.60990905761719,-1080.2889404296875,27.063552856445312,51.640987396240234,39.128883361816406
2304,1890,-88.79257202148438,-96.60990905761719,-1080.2889404296875,27.063552856445312,51.640987396240234,39.128883361816406
2317,1890,-88.79257202148438,-96.60990905761719,-1080.2889404296875,27.063552856445312,51.640987396240234,39.128883361816406
2342,1890,-88.79257202148438,-96.60990905761719,-1080.2889404296875,27.063552856445312,51.640987396240234,39.128883361816406
2329,1890,-88.79257202148438,-96.60990905761719,-1080.2889404296875,27.063552856445312,51.640987396240234,39.128883361816406
2413,1891,-43.33072280883789,-91.94430541992188,-1093.810791015625,-25.7901554107666,57.65336608886719,-23.84616470336914
2397,1891,-43.33072280883789,-91.94430541992188,-1093.810791015625,-25.7901554107666,57.65336608886719,-23.84616470336914
2377,1891,-43.33072280883789,-91.94430541992188,-1093.810791015625,-25.7901554107666,57.65336608886719,-23.84616470336914
2385,1891,-43.33072280883789,-91.94430541992188,-1093.810791015625,-25.7901554107666,57.65336608886719,-23.84616470336914
2344,1891,-43.33072280883789,-91.94430541992188,-1093.810791015625,-25.7901554107666,57.65336608886719,-23.84616470336914
2328,1891,-43.33072280883789,-91.94430541992188,-1093.810791015625,-25.7901554107666,57.65336608886719,-23.84616470336914
2308,1891,-43.33072280883789,-91.94430541992188,-1093.810791015625,-25.7901554107666,57.65336608886719,-23.84616470336914
2316,1891,-43.33072280883789,-91.94430541992188,-1093.810791015625,-25.7901554107666,57.65336608886719,-23.84616470336914
2407,1892,-132.5012969970703,-131.593994140625,-999.4922485351562,-4.085925102233887,-26.036293029785156,-23.31299591064453
2402,1892,-132.5012969970703,-131.593994140625,-999.4922485351562,-4.085925102233887,-26.036293029785156,-23.31299591064453
2381,1892,-132.5012969970703,-131.593994140625,-999.4922485351562,-4.085925102233887,-26.036293029785156,-23.31299591064453
2395,1892,-132.5012969970703,-131.593994140625,-999.4922485351562,-4.085925102233887,-26.036293029785156,-23.31299591064453
2338,1892,-132.5012969970703,-131.593994140625,-999.4922485351562,-4.085925102233887,-26.036293029785156,-23.31299591064453
2333,1892,-132.5012969970703,-131.593994140625,-999.4922485351562,-4.085925102233887,-26.036293029785156,-23.31299591064453
2312,1892,-132.5012969970703,-131.593994140625,-999.4922485351562,-4.085925102233887,-26.036293029785156,-23.31299591064453
2326,1892,-132.5012969970703,-131.593994140625,-999.4922485351562,-4.085925102233887,-26.036293029785156,-23.31299591064453
2381,1893,-99.64598846435547,-73.96786499023438,-1071.3123779296875,24.80721664428711,-27.75350570678711,-67.7746353149414
2396,1893,-99.64598846435547,-73.96786499023438,-1071.3123779296875,24.80721664428711,-27.75350570678711,-67.7746353149414
2404,1893,-99.64598846435547,-73.96786499023438,-1071.3123779296875,24.80721664428711,-27.75350570678711,-67.7746353149414
2405,1893,-99.64598846435547,-73.96786499023438,-1071.3123779296875,24.80721664428711,-27.75350570678711,-67.7746353149414
2312,1893,-99.64598846435547,-73.96786499023438,-1071.3123779296875,24.80721664428711,-27.75350570678711,-67.7746353149414
2327,1893,-99.64598846435547,-73.96786499023438,-1071.3123779296875,24.80721664428711,-27.75350570678711,-67.7746353149414
2335,1893,-99.64598846435547,-73.96786499023438,-1071.3123779296875,24.80721664428711,-27.75350570678711,-67.7746353149414
2336,1893,-99.64598846435547,-73.96786499023438,-1071.3123779296875,24.80721664428711,-27.75350570678711,-67.7746353149414
2388,1894,-68.72023010253906,-73.64295196533203,-1089.173583984375,-33.88672637939453,-41.75430679321289,41.436824798583984
2369,1894,-68.72023010253906,-73.64295196533203,-1089.173583984375,-33.88672637939453,-41.75430679321289,41.436824798583984
2408,1894,-68.72023010253906,-73.64295196533203,-1089.173583984375,-33.88672637939453,-41.75430679321289,41.436824798583984
2391,1894,-68.72023010253906,-73.64295196533203,-1089.173583984375,-33.88672637939453,-41.75430679321289,41.436824798583984
2319,1894,-68.72023010253906,-73.64295196533203,-1089.173583984375,-33.88672637939453,-41.75430679321289,41.436824798583984
2300,1894,-68.72023010253906,-73.64295196533203,-1089.173583984375,-33.88672637939453,-41.75430679321289,41.436824798583984
2339,1894,-68.72023010253906,-73.64295196533203,-1089.173583984375,-33.88672637939453,-41.75430679321289,41.436824798583984
2322,1894,-68.72023010253906,-73.64295196533203,-1089.173583984375,-33.88672637939453,-41.75430679321289,41.436824798583984
2415,1895,-61.947715759277344,-95.99727630615234,-1082.3634033203125,-24.44379234313965,-59.42961502075195,29.32795524597168
2371,1895,-61.947715759277344,-95.99727630615234,-1082.3634033203125,-24.44379234313965,-59.42961502075195,29.32795524597168
2388,1895,-61.947715759277344,-95.99727630615234,-1082.3634033203125,-24.44379234313965,-59.42961502075195,29.32795524597168
2391,1895,-61.947715759277344,-95.99727630615234,-1082.3634033203125,-24.44379234313965,-59.42961502075195,29.32795524597168
2346,1895,-61.947715759277344,-95.99727630615234,-1082.3634033203125,-24.44379234313965,-59.42961502075195,29.32795524597168
2302,1895,-61.947715759277344,-95.99727630615234,-1082.3634033203125,-24.44379234313965,-59.42961502075195,29.32795524597168
2319,1895,-61.947715759277344,-95.99727630615234,-1082.3634033203125,-24.44379234313965,-59.42961502075195,29.32795524597168
2322,1895,-61.947715759277344,-95.99727630615234,-1082.3634033203125,-24.44379234313965,-59.42961502075195,29.32795524597168
2375,1896,-36.48794174194336,-102.65241241455078,-1089.21728515625,7.898776531219482,55.8735466003418,3.1229543685913086
2376,1896,-36.48794174194336,-102.65241241455078,-1089.21728515625,7.898776531219482,55.8735466003418,3.1229543685913086
2412,1896,-36.48794174194336,-102.65241241455078,-1089.21728515625,7.898776531219482,55.8735466003418,3.1229543685913086
2390,1896,-36.48794174194336,-102.65241241455078,-1089.21728515625,7.898776531219482,55.8735466003418,3.1229543685913086
2306,1896,-36.48794174194336,-102.65241241455078,-1089.21728515625,7.898776531219482,55.8735466003418,3.1229543685913086
2307,1896,-36.48794174194336,-102.65241241455078,-1089.21728515625,7.898776531219482,55.8735466003418,3.1229543685913086
2343,1896,-36.48794174194336,-102.65241241455078,-1089.21728515625,7.898776531219482,55.8735466003418,3.1229543685913086
2321,1896,-36.48794174194336,-102.65241241455078,-1089.21728515625,7.898776531219482,55.8735466003418,3.1229543685913086
2360,1897,15.747093200683594,7.954936981201172,-932.76708984375,-24.840566635131836,10.277058601379395,-9.996199607849121
2369,1897,15.747093200683594,7.954936981201172,-932.76708984375,-24.840566635131836,10.277058601379395,-9.996199607849121
2388,1897,15.747093200683594,7.954936981201172,-932.76708984375,-24.840566635131836,10.277058601379395,-9.996199607849121
2368,1897,15.747093200683594,7.954936981201172,-932.76708984375,-24.840566635131836,10.277058601379395,-9.996199607849121
2291,1897,15.747093200683594,7.954936981201172,-932.76708984375,-24.840566635131836,10.277058601379395,-9.996199607849121
2300,1897,15.747093200683594,7.954936981201172,-932.76708984375,-24.840566635131836,10.277058601379395,-9.996199607849121
2319,1897,15.747093200683594,7.954936981201172,-932.76708984375,-24.840566635131836,10.277058601379395,-9.996199607849121
2299,1897,15.747093200683594,7.954936981201172,-932.76708984375,-24.840566635131836,10.277058601379395,-9.996199607849121
2357,1898,-11.508373260498047,29.16775894165039,-938.1956176757812,15.374330520629883,-5.926715850830078,-14.16641902923584
2403,1898,-11.508373260498047,29.16775894165039,-938.1956176757812,15.374330520629883,-5.926715850830078,-14.16641902923584
2372,1898,-11.508373260498047,29.16775894165039,-938.1956176757812,15.374330520629883,-5.926715850830078,-14.16641902923584
2367,1898,-11.508373260498047,29.16775894165039,-938.1956176757812,15.374330520629883,-5.926715850830078,-14.16641902923584
2288,1898,-11.508373260498047,29.16775894165039,-938.1956176757812,15.374330520629883,-5.926715850830078,-14.16641902923584
2334,1898,-11.508373260498047,29.16775894165039,-938.1956176757812,15.374330520629883,-5.926715850830078,-14.16641902923584
2303,1898,-11.508373260498047,29.16775894165039,-938.1956176757812,15.374330520629883,-5.926715850830078,-14.16641902923584
2298,1898,-11.508373260498047,29.16775894165039,-938.1956176757812,15.374330520629883,-5.926715850830078,-14.16641902923584
2373,1899,9.616241455078125,1.7373063564300537,-944.3292236328125,25.096731185913086,-7.054579257965088,-5.5015130043029785
2356,1899,9.616241455078125,1.7373063564300537,-944.3292236328125,25.096731185913086,-7.054579257965088,-5.5015130043029785
2366,1899,9.616241455078125,1.7373063564300537,-944.3292236328125,25.096731185913086,-7.054579257965088,-5.5015130043029785
2386,1899,9.616241455078125,1.7373063564300537,-944.3292236328125,25.096731185913086,-7.054579257965088,-5.5015130043029785
2304,1899,9.616241455078125,1.7373063564300537,-944.3292236328125,25.096731185913086,-7.054579257965088,-5.5015130043029785
2287,1899,9.616241455078125,1.7373063564300537,-944.3292236328125,25.096731185913086,-7.054579257965088,-5.5015130043029785
2297,1899,9.616241455078125,1.7373063564300537,-944.3292236328125,25.096731185913086,-7.054579257965088,-5.5015130043029785
2317,1899,9.616241455078125,1.7373063564300537,-944.3292236328125,25.096731185913086,-7.054579257965088,-5.5015130043029785
2374,1900,35.07413864135742,-13.733948707580566,-933.916259765625,-7.629167079925537,14.793164253234863,-1.0720431804656982
2362,1900,35.07413864135742,-13.733948707580566,-933.916259765625,-7.629167079925537,14.793164253234863,-1.0720431804656982
2361,1900,35.07413864135742,-13.733948707580566,-933.916259765625,-7.629167079925537,14.793164253234863,-1.0720431804656982
2371,1900,35.07413864135742,-13.733948707580566,-933.916259765625,-7.629167079925537,14.793164253234863,-1.0720431804656982
2305,1900,35.07413864135742,-13.733948707580566,-933.916259765625,-7.629167079925537,14.793164253234863,-1.0720431804656982
2293,1900,35.07413864135742,-13.733948707580566,-933.916259765625,-7.629167079925537,14.793164253234863,-1.0720431804656982
2292,1900,35.07413864135742,-13.733948707580566,-933.916259765625,-7.629167079925537,14.793164253234863,-1.0720431804656982
2302,1900,35.07413864135742,-13.733948707580566,-933.916259765625,-7.629167079925537,14.793164253234863,-1.0720431804656982
2386,1901,25.29547691345215,-6.629617214202881,-938.7322387695312,20.3818302154541,-11.206711769104004,-6.824237823486328
2366,1901,25.29547691345215,-6.629617214202881,-938.7322387695312,20.3818302154541,-11.206711769104004,-6.824237823486328
2355,1901,25.29547691345215,-6.629617214202881,-938.7322387695312,20.3818302154541,-11.206711769104004,-6.824237823486328
2375,1901,25.29547691345215,-6.629617214202881,-938.7322387695312,20.3818302154541,-11.206711769104004,-6.824237823486328
2317,1901,25.29547691345215,-6.629617214202881,-938.7322387695312,20.3818302154541,-11.206711769104004,-6.824237823486328
2297,1901,25.29547691345215,-6.629617214202881,-938.7322387695312,20.3818302154541,-11.206711769104004,-6.824237823486328
2286,1901,25.29547691345215,-6.629617214202881,-938.7322387695312,20.3818302154541,-11.206711769104004,-6.824237823486328
2306,1901,25.29547691345215,-6.629617214202881,-938.7322387695312,20.3818302154541,-11.206711769104004,-6.824237823486328
2410,1902,-103.94404602050781,-83.72715759277344,-1079.302001953125,25.658052444458008,32.98614501953125,56.92375564575195
2403,1902,-103.94404602050781,-83.72715759277344,-1079.302001953125,25.658052444458008,32.98614501953125,56.92375564575195
2373,1902,-103.94404602050781,-83.72715759277344,-1079.302001953125,25.658052444458008,32.98614501953125,56.92375564575195
2398,1902,-103.94404602050781,-83.72715759277344,-1079.302001953125,25.658052444458008,32.98614501953125,56.92375564575195
2341,1902,-103.94404602050781,-83.72715759277344,-1079.302001953125,25.658052444458008,32.98614501953125,56.92375564575195
2334,1902,-103.94404602050781,-83.72715759277344,-1079.302001953125,25.658052444458008,32.98614501953125,56.92375564575195
2304,1902,-103.94404602050781,-83.72715759277344,-1079.302001953125,25.658052444458008,32.98614501953125,56.92375564575195
2329,1902,-103.94404602050781,-83.72715759277344,-1079.302001953125,25.658052444458008,32.98614501953125,56.92375564575195
2375,1903,39.917137145996094,-12.310190200805664,-931.5355224609375,7.060848236083984,-15.129213333129883,-1.1703928709030151
2355,1903,39.917137145996094,-12.310190200805664,-931.5355224609375,7.060848236083984,-15.129213333129883,-1.1703928709030151
2354,1903,39.917137145996094,-12.310190200805664,-931.5355224609375,7.060848236083984,-15.129213333129883,-1.1703928709030151
2376,1903,39.917137145996094,-12.310190200805664,-931.5355224609375,7.060848236083984,-15.129213333129883,-1.1703928709030151
2306,1903,39.917137145996094,-12.310190200805664,-931.5355224609375,7.060848236083984,-15.129213333129883,-1.1703928709030151
2286,1903,39.917137145996094,-12.310190200805664,-931.5355224609375,7.060848236083984,-15.129213333129883,-1.1703928709030151
2285,1903,39.917137145996094,-12.310190200805664,-931.5355224609375,7.060848236083984,-15.129213333129883,-1.1703928709030151
2307,1903,39.917137145996094,-12.310190200805664,-931.5355224609375,7.060848236083984,-15.129213333129883,-1.1703928709030151
2376,1904,38.27000045776367,-10.925338745117188,-929.5908813476562,-8.272255897521973,-16.3903751373291,0.6410737037658691
2354,1904,38.27000045776367,-10.925338745117188,-929.5908813476562,-8.272255897521973,-16.3903751373291,0.6410737037658691
2353,1904,38.27000045776367,-10.925338745117188,-929.5908813476562,-8.272255897521973,-16.3903751373291,0.6410737037658691
2377,1904,38.27000045776367,-10.925338745117188,-929.5908813476562,-8.272255897521973,-16.3903751373291,0.6410737037658691
2307,1904,38.27000045776367,-10.925338745117188,-929.5908813476562,-8.272255897521973,-16.3903751373291,0.6410737037658691
2285,1904,38.27000045776367,-10.925338745117188,-929.5908813476562,-8.272255897521973,-16.3903751373291,0.6410737037658691
2284,1904,38.27000045776367,-10.925338745117188,-929.5908813476562,-8.272255897521973,-16.3903751373291,0.6410737037658691
2308,1904,38.27000045776367,-10.925338745117188,-929.5908813476562,-8.272255897521973,-16.3903751373291,0.6410737037658691
2407,1905,-123.01988220214844,-133.6422119140625,-999.2261352539062,-3.2568247318267822,-43.84211730957031,-20.304624557495117
2395,1905,-123.01988220214844,-133.6422119140625,-999.2261352539062,-3.2568247318267822,-43.84211730957031,-20.304624557495117
2406,1905,-123.01988220214844,-133.6422119140625,-999.2261352539062,-3.2568247318267822,-43.84211730957031,-20.304624557495117
2400,1905,-123.01988220214844,-133.6422119140625,-999.2261352539062,-3.2568247318267822,-43.84211730957031,-20.304624557495117
2338,1905,-123.01988220214844,-133.6422119140625,-999.2261352539062,-3.2568247318267822,-43.84211730957031,-20.304624557495117
2326,1905,-123.01988220214844,-133.6422119140625,-999.2261352539062,-3.2568247318267822,-43.84211730957031,-20.304624557495117
2337,1905,-123.01988220214844,-133.6422119140625,-999.2261352539062,-3.2568247318267822,-43.84211730957031,-20.304624557495117
2331,1905,-123.01988220214844,-133.6422119140625,-999.2261352539062,-3.2568247318267822,-43.84211730957031,-20.304624557495117
2362,1906,36.195960998535156,-16.001638412475586,-935.5654296875,5.514754772186279,14.852275848388672,2.329906702041626
2374,1906,36.195960998535156,-16.001638412475586,-935.5654296875,5.514754772186279,14.852275848388672,2.329906702041626
2382,1906,36.195960998535156,-16.001638412475586,-935.5654296875,5.514754772186279,14.852275848388672,2.329906702041626
2347,1906,36.195960998535156,-16.001638412475586,-935.5654296875,5.514754772186279,14.852275848388672,2.329906702041626
2293,1906,36.195960998535156,-16.001638412475586,-935.5654296875,5.514754772186279,14.852275848388672,2.329906702041626
2305,1906,36.195960998535156,-16.001638412475586,-935.5654296875,5.514754772186279,14.852275848388672,2.329906702041626
2313,1906,36.195960998535156,-16.001638412475586,-935.5654296875,5.514754772186279,14.852275848388672,2.329906702041626
2278,1906,36.195960998535156,-16.001638412475586,-935.5654296875,5.514754772186279,14.852275848388672,2.329906702041626
2377,1907,31.971397399902344,-0.13609832525253296,-927.8486328125,-21.114038467407227,-16.723125457763672,9.106330871582031
2353,1907,31.971397399902344,-0.13609832525253296,-927.8486328125,-21.114038467407227,-16.723125457763672,9.106330871582031
2365,1907,31.971397399902344,-0.13609832525253296,-927.8486328125,-21.114038467407227,-16.723125457763672,9.106330871582031
2385,1907,31.971397399902344,-0.13609832525253296,-927.8486328125,-21.114038467407227,-16.723125457763672,9.106330871582031
2308,1907,31.971397399902344,-0.13609832525253296,-927.8486328125,-21.114038467407227,-16.723125457763672,9.106330871582031
2284,1907,31.971397399902344,-0.13609832525253296,-927.8486328125,-21.114038467407227,-16.723125457763672,9.106330871582031
2296,1907,31.971397399902344,-0.13609832525253296,-927.8486328125,-21.114038467407227,-16.723125457763672,9.106330871582031
2316,1907,31.971397399902344,-0.13609832525253296,-927.8486328125,-21.114038467407227,-16.723125457763672,9.106330871582031
2385,1908,12.642341613769531,5.981998443603516,-936.0675659179688,-24.545289993286133,-9.508849143981934,7.890652179718018
2365,1908,12.642341613769531,5.981998443603516,-936.0675659179688,-24.545289993286133,-9.508849143981934,7.890652179718018
2352,1908,12.642341613769531,5.981998443603516,-936.0675659179688,-24.545289993286133,-9.508849143981934,7.890652179718018
2378,1908,12.642341613769531,5.981998443603516,-936.0675659179688,-24.545289993286133,-9.508849143981934,7.890652179718018
2316,1908,12.642341613769531,5.981998443603516,-936.0675659179688,-24.545289993286133,-9.508849143981934,7.890652179718018
2296,1908,12.642341613769531,5.981998443603516,-936.0675659179688,-24.545289993286133,-9.508849143981934,7.890652179718018
2283,1908,12.642341613769531,5.981998443603516,-936.0675659179688,-24.545289993286133,-9.508849143981934,7.890652179718018
2309,1908,12.642341613769531,5.981998443603516,-936.0675659179688,-24.545289993286133,-9.508849143981934,7.890652179718018
2378,1909,-2.8668248653411865,17.225496292114258,-941.1432495117188,-23.645179748535156,-7.649612903594971,9.839301109313965
2352,1909,-2.8668248653411865,17.225496292114258,-941.1432495117188,-23.645179748535156,-7.649612903594971,9.839301109313965
2351,1909,-2.8668248653411865,17.225496292114258,-941.1432495117188,-23.645179748535156,-7.649612903594971,9.839301109313965
2379,1909,-2.8668248653411865,17.225496292114258,-941.1432495117188,-23.645179748535156,-7.649612903594971,9.839301109313965
2309,1909,-2.8668248653411865,17.225496292114258,-941.1432495117188,-23.645179748535156,-7.649612903594971,9.839301109313965
2283,1909,-2.8668248653411865,17.225496292114258,-941.1432495117188,-23.645179748535156,-7.649612903594971,9.839301109313965
2282,1909,-2.8668248653411865,17.225496292114258,-941.1432495117188,-23.645179748535156,-7.649612903594971,9.839301109313965
2310,1909,-2.8668248653411865,17.225496292114258,-941.1432495117188,-23.645179748535156,-7.649612903594971,9.839301109313965
2379,1910,-13.53935432434082,32.066734313964844,-944.1534423828125,-11.761335372924805,-3.895235300064087,11.71957778930664
2351,1910,-13.53935432434082,32.066734313964844,-944.1534423828125,-11.761335372924805,-3.895235300064087,11.71957778930664
2364,1910,-13.53935432434082,32.066734313964844,-944.1534423828125,-11.761335372924805,-3.895235300064087,11.71957778930664
2384,1910,-13.53935432434082,32.066734313964844,-944.1534423828125,-11.761335372924805,-3.895235300064087,11.71957778930664
2310,1910,-13.53935432434082,32.066734313964844,-944.1534423828125,-11.761335372924805,-3.895235300064087,11.71957778930664
2282,1910,-13.53935432434082,32.066734313964844,-944.1534423828125,-11.761335372924805,-3.895235300064087,11.71957778930664
2295,1910,-13.53935432434082,32.066734313964844,-944.1534423828125,-11.761335372924805,-3.895235300064087,11.71957778930664
2315,1910,-13.53935432434082,32.066734313964844,-944.1534423828125,-11.761335372924805,-3.895235300064087,11.71957778930664
2384,1911,-4.070103168487549,45.923065185546875,-911.84228515625,3.349149703979492,2.0377702713012695,25.157011032104492
2364,1911,-4.070103168487549,45.923065185546875,-911.84228515625,3.349149703979492,2.0377702713012695,25.157011032104492
2350,1911,-4.070103168487549,45.923065185546875,-911.84228515625,3.349149703979492,2.0377702713012695,25.157011032104492
2380,1911,-4.070103168487549,45.923065185546875,-911.84228515625,3.349149703979492,2.0377702713012695,25.157011032104492
2315,1911,-4.070103168487549,45.923065185546875,-911.84228515625,3.349149703979492,2.0377702713012695,25.157011032104492
2295,1911,-4.070103168487549,45.923065185546875,-911.84228515625,3.349149703979492,2.0377702713012695,25.157011032104492
2281,1911,-4.070103168487549,45.923065185546875,-911.84228515625,3.349149703979492,2.0377702713012695,25.157011032104492
2311,1911,-4.070103168487549,45.923065185546875,-911.84228515625,3.349149703979492,2.0377702713012695,25.157011032104492
2404,1912,-5.627445697784424,22.51602554321289,-945.6851806640625,22.584524154663086,8.329127311706543,10.874296188354492
2349,1912,-5.627445697784424,22.51602554321289,-945.6851806640625,22.584524154663086,8.329127311706543,10.874296188354492
2348,1912,-5.627445697784424,22.51602554321289,-945.6851806640625,22.584524154663086,8.329127311706543,10.874296188354492
2405,1912,-5.627445697784424,22.51602554321289,-945.6851806640625,22.584524154663086,8.329127311706543,10.874296188354492
2335,1912,-5.627445697784424,22.51602554321289,-945.6851806640625,22.584524154663086,8.329127311706543,10.874296188354492
2280,1912,-5.627445697784424,22.51602554321289,-945.6851806640625,22.584524154663086,8.329127311706543,10.874296188354492
2279,1912,-5.627445697784424,22.51602554321289,-945.6851806640625,22.584524154663086,8.329127311706543,10.874296188354492
2336,1912,-5.627445697784424,22.51602554321289,-945.6851806640625,22.584524154663086,8.329127311706543,10.874296188354492
2383,1913,23.088041305541992,-12.712447166442871,-945.9951171875,19.664445877075195,8.461313247680664,4.6398186683654785
2363,1913,23.088041305541992,-12.712447166442871,-945.9951171875,19.664445877075195,8.461313247680664,4.6398186683654785
2347,1913,23.088041305541992,-12.712447166442871,-945.9951171875,19.664445877075195,8.461313247680664,4.6398186683654785
2382,1913,23.088041305541992,-12.712447166442871,-945.9951171875,19.664445877075195,8.461313247680664,4.6398186683654785
2314,1913,23.088041305541992,-12.712447166442871,-945.9951171875,19.664445877075195,8.461313247680664,4.6398186683654785
2294,1913,23.088041305541992,-12.712447166442871,-945.9951171875,19.664445877075195,8.461313247680664,4.6398186683654785
2278,1913,23.088041305541992,-12.712447166442871,-945.9951171875,19.664445877075195,8.461313247680664,4.6398186683654785
2313,1913,23.088041305541992,-12.712447166442871,-945.9951171875,19.664445877075195,8.461313247680664,4.6398186683654785
2406,1914,-46.518760681152344,-111.42286682128906,-1104.0400390625,11.8113374710083,-70.42689514160156,-3.745089054107666
2382,1914,-46.518760681152344,-111.42286682128906,-1104.0400390625,11.8113374710083,-70.42689514160156,-3.745089054107666
2374,1914,-46.518760681152344,-111.42286682128906,-1104.0400390625,11.8113374710083,-70.42689514160156,-3.745089054107666
2389,1914,-46.518760681152344,-111.42286682128906,-1104.0400390625,11.8113374710083,-70.42689514160156,-3.745089054107666
2337,1914,-46.518760681152344,-111.42286682128906,-1104.0400390625,11.8113374710083,-70.42689514160156,-3.745089054107666
2313,1914,-46.518760681152344,-111.42286682128906,-1104.0400390625,11.8113374710083,-70.42689514160156,-3.745089054107666
2305,1914,-46.518760681152344,-111.42286682128906,-1104.0400390625,11.8113374710083,-70.42689514160156,-3.745089054107666
2320,1914,-46.518760681152344,-111.42286682128906,-1104.0400390625,11.8113374710083,-70.42689514160156,-3.745089054107666
2405,1915,-96.93743133544922,-96.4253921508789,-1092.0428466796875,23.704465866088867,-56.79666519165039,-46.80564880371094
2383,1915,-96.93743133544922,-96.4253921508789,-1092.0428466796875,23.704465866088867,-56.79666519165039,-46.80564880371094
2395,1915,-96.93743133544922,-96.4253921508789,-1092.0428466796875,23.704465866088867,-56.79666519165039,-46.80564880371094
2381,1915,-96.93743133544922,-96.4253921508789,-1092.0428466796875,23.704465866088867,-56.79666519165039,-46.80564880371094
2336,1915,-96.93743133544922,-96.4253921508789,-1092.0428466796875,23.704465866088867,-56.79666519165039,-46.80564880371094
2314,1915,-96.93743133544922,-96.4253921508789,-1092.0428466796875,23.704465866088867,-56.79666519165039,-46.80564880371094
2326,1915,-96.93743133544922,-96.4253921508789,-1092.0428466796875,23.704465866088867,-56.79666519165039,-46.80564880371094
2312,1915,-96.93743133544922,-96.4253921508789,-1092.0428466796875,23.704465866088867,-56.79666519165039,-46.80564880371094
2380,1916,-3.15631103515625,44.306549072265625,-912.753173828125,10.145197868347168,5.290894031524658,23.833621978759766
2350,1916,-3.15631103515625,44.306549072265625,-912.753173828125,10.145197868347168,5.290894031524658,23.833621978759766
2349,1916,-3.15631103515625,44.306549072265625,-912.753173828125,10.145197868347168,5.290894031524658,23.833621978759766
2404,1916,-3.15631103515625,44.306549072265625,-912.753173828125,10.145197868347168,5.290894031524658,23.833621978759766
2311,1916,-3.15631103515625,44.306549072265625,-912.753173828125,10.145197868347168,5.290894031524658,23.833621978759766
2281,1916,-3.15631103515625,44.306549072265625,-912.753173828125,10.145197868347168,5.290894031524658,23.833621978759766
2280,1916,-3.15631103515625,44.306549072265625,-912.753173828125,10.145197868347168,5.290894031524658,23.833621978759766
2335,1916,-3.15631103515625,44.306549072265625,-912.753173828125,10.145197868347168,5.290894031524658,23.833621978759766
2389,1917,-40.30939483642578,-106.59085083007812,-1093.6500244140625,-11.668282508850098,-62.374786376953125,5.950102806091309
2374,1917,-40.30939483642578,-106.59085083007812,-1093.6500244140625,-11.668282508850098,-62.374786376953125,5.950102806091309
2371,1917,-40.30939483642578,-106.59085083007812,-1093.6500244140625,-11.668282508850098,-62.374786376953125,5.950102806091309
2415,1917,-40.30939483642578,-106.59085083007812,-1093.6500244140625,-11.668282508850098,-62.374786376953125,5.950102806091309
2320,1917,-40.30939483642578,-106.59085083007812,-1093.6500244140625,-11.668282508850098,-62.374786376953125,5.950102806091309
2305,1917,-40.30939483642578,-106.59085083007812,-1093.6500244140625,-11.668282508850098,-62.374786376953125,5.950102806091309
2302,1917,-40.30939483642578,-106.59085083007812,-1093.6500244140625,-11.668282508850098,-62.374786376953125,5.950102806091309
2346,1917,-40.30939483642578,-106.59085083007812,-1093.6500244140625,-11.668282508850098,-62.374786376953125,5.950102806091309
2400,1918,-126.52964782714844,-127.77562713623047,-1016.3008422851562,1.9863125085830688,-40.089725494384766,25.945459365844727
2415,1918,-126.52964782714844,-127.77562713623047,-1016.3008422851562,1.9863125085830688,-40.089725494384766,25.945459365844727
2391,1918,-126.52964782714844,-127.77562713623047,-1016.3008422851562,1.9863125085830688,-40.089725494384766,25.945459365844727
2399,1918,-126.52964782714844,-127.77562713623047,-1016.3008422851562,1.9863125085830688,-40.089725494384766,25.945459365844727
2331,1918,-126.52964782714844,-127.77562713623047,-1016.3008422851562,1.9863125085830688,-40.089725494384766,25.945459365844727
2346,1918,-126.52964782714844,-127.77562713623047,-1016.3008422851562,1.9863125085830688,-40.089725494384766,25.945459365844727
2322,1918,-126.52964782714844,-127.77562713623047,-1016.3008422851562,1.9863125085830688,-40.089725494384766,25.945459365844727
2330,1918,-126.52964782714844,-127.77562713623047,-1016.3008422851562,1.9863125085830688,-40.089725494384766,25.945459365844727
2370,1919,-95.32417297363281,-34.65022277832031,-1086.046142578125,-16.65813636779785,-12.747011184692383,55.013465881347656
2387,1919,-95.32417297363281,-34.65022277832031,-1086.046142578125,-16.65813636779785,-12.747011184692383,55.013465881347656
2409,1919,-95.32417297363281,-34.65022277832031,-1086.046142578125,-16.65813636779785,-12.747011184692383,55.013465881347656
2394,1919,-95.32417297363281,-34.65022277832031,-1086.046142578125,-16.65813636779785,-12.747011184692383,55.013465881347656
2301,1919,-95.32417297363281,-34.65022277832031,-1086.046142578125,-16.65813636779785,-12.747011184692383,55.013465881347656
2318,1919,-95.32417297363281,-34.65022277832031,-1086.046142578125,-16.65813636779785,-12.747011184692383,55.013465881347656
2340,1919,-95.32417297363281,-34.65022277832031,-1086.046142578125,-16.65813636779785,-12.747011184692383,55.013465881347656
2325,1919,-95.32417297363281,-34.65022277832031,-1086.046142578125,-16.65813636779785,-12.747011184692383,55.013465881347656
2394,1920,-122.10749053955078,-122.23307037353516,-1012.5831909179688,-3.7900590896606445,-11.127276420593262,62.552791595458984
2409,1920,-122.10749053955078,-122.23307037353516,-1012.5831909179688,-3.7900590896606445,-11.127276420593262,62.552791595458984
2393,1920,-122.10749053955078,-122.23307037353516,-1012.5831909179688,-3.7900590896606445,-11.127276420593262,62.552791595458984
2399,1920,-122.10749053955078,-122.23307037353516,-1012.5831909179688,-3.7900590896606445,-11.127276420593262,62.552791595458984
2325,1920,-122.10749053955078,-122.23307037353516,-1012.5831909179688,-3.7900590896606445,-11.127276420593262,62.552791595458984
2340,1920,-122.10749053955078,-122.23307037353516,-1012.5831909179688,-3.7900590896606445,-11.127276420593262,62.552791595458984
2324,1920,-122.10749053955078,-122.23307037353516,-1012.5831909179688,-3.7900590896606445,-11.127276420593262,62.552791595458984
2330,1920,-122.10749053955078,-122.23307037353516,-1012.5831909179688,-3.7900590896606445,-11.127276420593262,62.552791595458984
2396,1921,-93.2825927734375,-21.274818420410156,-1106.956298828125,10.377144813537598,-7.515379905700684,-51.39971160888672
2384,1921,-93.2825927734375,-21.274818420410156,-1106.956298828125,10.377144813537598,-7.515379905700684,-51.39971160888672
2380,1921,-93.2825927734375,-21.274818420410156,-1106.956298828125,10.377144813537598,-7.515379905700684,-51.39971160888672
2404,1921,-93.2825927734375,-21.274818420410156,-1106.956298828125,10.377144813537598,-7.515379905700684,-51.39971160888672
2327,1921,-93.2825927734375,-21.274818420410156,-1106.956298828125,10.377144813537598,-7.515379905700684,-51.39971160888672
2315,1921,-93.2825927734375,-21.274818420410156,-1106.956298828125,10.377144813537598,-7.515379905700684,-51.39971160888672
2311,1921,-93.2825927734375,-21.274818420410156,-1106.956298828125,10.377144813537598,-7.515379905700684,-51.39971160888672
2335,1921,-93.2825927734375,-21.274818420410156,-1106.956298828125,10.377144813537598,-7.515379905700684,-51.39971160888672
2394,1922,-117.814697265625,-116.47305297851562,-1001.6944580078125,-4.099556922912598,-37.700687408447266,41.91004180908203
2399,1922,-117.814697265625,-116.47305297851562,-1001.6944580078125,-4.099556922912598,-37.700687408447266,41.91004180908203
2391,1922,-117.814697265625,-116.47305297851562,-1001.6944580078125,-4.099556922912598,-37.700687408447266,41.91004180908203
2408,1922,-117.814697265625,-116.47305297851562,-1001.6944580078125,-4.099556922912598,-37.700687408447266,41.91004180908203
2325,1922,-117.814697265625,-116.47305297851562,-1001.6944580078125,-4.099556922912598,-37.700687408447266,41.91004180908203
2330,1922,-117.814697265625,-116.47305297851562,-1001.6944580078125,-4.099556922912598,-37.700687408447266,41.91004180908203
2322,1922,-117.814697265625,-116.47305297851562,-1001.6944580078125,-4.099556922912598,-37.700687408447266,41.91004180908203
2339,1922,-117.814697265625,-116.47305297851562,-1001.6944580078125,-4.099556922912598,-37.700687408447266,41.91004180908203
2372,1923,-108.46660614013672,-50.801090240478516,-1094.8956298828125,16.030954360961914,18.919334411621094,69.14271545410156
2403,1923,-108.46660614013672,-50.801090240478516,-1094.8956298828125,16.030954360961914,18.919334411621094,69.14271545410156
2410,1923,-108.46660614013672,-50.801090240478516,-1094.8956298828125,16.030954360961914,18.919334411621094,69.14271545410156
2393,1923,-108.46660614013672,-50.801090240478516,-1094.8956298828125,16.030954360961914,18.919334411621094,69.14271545410156
2303,1923,-108.46660614013672,-50.801090240478516,-1094.8956298828125,16.030954360961914,18.919334411621094,69.14271545410156
2334,1923,-108.46660614013672,-50.801090240478516,-1094.8956298828125,16.030954360961914,18.919334411621094,69.14271545410156
2341,1923,-108.46660614013672,-50.801090240478516,-1094.8956298828125,16.030954360961914,18.919334411621094,69.14271545410156
2324,1923,-108.46660614013672,-50.801090240478516,-1094.8956298828125,16.030954360961914,18.919334411621094,69.14271545410156
2414,1924,-131.21090698242188,-125.14116668701172,-987.2771606445312,-0.558919370174408,-1.3493845462799072,-42.928321838378906
2396,1924,-131.21090698242188,-125.14116668701172,-987.2771606445312,-0.558919370174408,-1.3493845462799072,-42.928321838378906
2381,1924,-131.21090698242188,-125.14116668701172,-987.2771606445312,-0.558919370174408,-1.3493845462799072,-42.928321838378906
2402,1924,-131.21090698242188,-125.14116668701172,-987.2771606445312,-0.558919370174408,-1.3493845462799072,-42.928321838378906
2345,1924,-131.21090698242188,-125.14116668701172,-987.2771606445312,-0.558919370174408,-1.3493845462799072,-42.928321838378906
2327,1924,-131.21090698242188,-125.14116668701172,-987.2771606445312,-0.558919370174408,-1.3493845462799072,-42.928321838378906
2312,1924,-131.21090698242188,-125.14116668701172,-987.2771606445312,-0.558919370174408,-1.3493845462799072,-42.928321838378906
2333,1924,-131.21090698242188,-125.14116668701172,-987.2771606445312,-0.558919370174408,-1.3493845462799072,-42.928321838378906
2390,1925,-115.81580352783203,-120.0550308227539,-1017.55712890625,-3.1985361576080322,71.4102783203125,-1.5280519723892212
2412,1925,-115.81580352783203,-120.0550308227539,-1017.55712890625,-3.1985361576080322,71.4102783203125,-1.5280519723892212
2397,1925,-115.81580352783203,-120.0550308227539,-1017.55712890625,-3.1985361576080322,71.4102783203125,-1.5280519723892212
2401,1925,-115.81580352783203,-120.0550308227539,-1017.55712890625,-3.1985361576080322,71.4102783203125,-1.5280519723892212
2321,1925,-115.81580352783203,-120.0550308227539,-1017.55712890625,-3.1985361576080322,71.4102783203125,-1.5280519723892212
2343,1925,-115.81580352783203,-120.0550308227539,-1017.55712890625,-3.1985361576080322,71.4102783203125,-1.5280519723892212
2328,1925,-115.81580352783203,-120.0550308227539,-1017.55712890625,-3.1985361576080322,71.4102783203125,-1.5280519723892212
2332,1925,-115.81580352783203,-120.0550308227539,-1017.55712890625,-3.1985361576080322,71.4102783203125,-1.5280519723892212
2413,1926,-71.5268783569336,-80.79769897460938,-1085.267578125,-34.7508659362793,44.95248794555664,-36.526554107666016
2385,1926,-71.5268783569336,-80.79769897460938,-1085.267578125,-34.7508659362793,44.95248794555664,-36.526554107666016
2378,1926,-71.5268783569336,-80.79769897460938,-1085.267578125,-34.7508659362793,44.95248794555664,-36.526554107666016
2392,1926,-71.5268783569336,-80.79769897460938,-1085.267578125,-34.7508659362793,44.95248794555664,-36.526554107666016
2344,1926,-71.5268783569336,-80.79769897460938,-1085.267578125,-34.7508659362793,44.95248794555664,-36.526554107666016
2316,1926,-71.5268783569336,-80.79769897460938,-1085.267578125,-34.7508659362793,44.95248794555664,-36.526554107666016
2309,1926,-71.5268783569336,-80.79769897460938,-1085.267578125,-34.7508659362793,44.95248794555664,-36.526554107666016
2323,1926,-71.5268783569336,-80.79769897460938,-1085.267578125,-34.7508659362793,44.95248794555664,-36.526554107666016
2402,1927,-127.56977844238281,-135.74317932128906,-1016.4131469726562,3.6166694164276123,22.701709747314453,-31.16423225402832
2401,1927,-127.56977844238281,-135.74317932128906,-1016.4131469726562,3.6166694164276123,22.701709747314453,-31.16423225402832
2392,1927,-127.56977844238281,-135.74317932128906,-1016.4131469726562,3.6166694164276123,22.701709747314453,-31.16423225402832
2414,1927,-127.56977844238281,-135.74317932128906,-1016.4131469726562,3.6166694164276123,22.701709747314453,-31.16423225402832
2333,1927,-127.56977844238281,-135.74317932128906,-1016.4131469726562,3.6166694164276123,22.701709747314453,-31.16423225402832
2332,1927,-127.56977844238281,-135.74317932128906,-1016.4131469726562,3.6166694164276123,22.701709747314453,-31.16423225402832
2323,1927,-127.56977844238281,-135.74317932128906,-1016.4131469726562,3.6166694164276123,22.701709747314453,-31.16423225402832
2345,1927,-127.56977844238281,-135.74317932128906,-1016.4131469726562,3.6166694164276123,22.701709747314453,-31.16423225402832
2402,1928,-141.85211181640625,-137.3890380859375,-1039.7835693359375,-0.372265100479126,-15.731109619140625,1.4603650569915771
2407,1928,-141.85211181640625,-137.3890380859375,-1039.7835693359375,-0.372265100479126,-15.731109619140625,1.4603650569915771
2400,1928,-141.85211181640625,-137.3890380859375,-1039.7835693359375,-0.372265100479126,-15.731109619140625,1.4603650569915771
2399,1928,-141.85211181640625,-137.3890380859375,-1039.7835693359375,-0.372265100479126,-15.731109619140625,1.4603650569915771
2333,1928,-141.85211181640625,-137.3890380859375,-1039.7835693359375,-0.372265100479126,-15.731109619140625,1.4603650569915771
2338,1928,-141.85211181640625,-137.3890380859375,-1039.7835693359375,-0.372265100479126,-15.731109619140625,1.4603650569915771
2331,1928,-141.85211181640625,-137.3890380859375,-1039.7835693359375,-0.372265100479126,-15.731109619140625,1.4603650569915771
2330,1928,-141.85211181640625,-137.3890380859375,-1039.7835693359375,-0.372265100479126,-15.731109619140625,1.4603650569915771
2392,1929,-112.28424835205078,-119.25175476074219,-999.9560546875,-4.538127422332764,49.12710952758789,-34.22832107543945
2401,1929,-112.28424835205078,-119.25175476074219,-999.9560546875,-4.538127422332764,49.12710952758789,-34.22832107543945
2397,1929,-112.28424835205078,-119.25175476074219,-999.9560546875,-4.538127422332764,49.12710952758789,-34.22832107543945
2413,1929,-112.28424835205078,-119.25175476074219,-999.9560546875,-4.538127422332764,49.12710952758789,-34.22832107543945
2323,1929,-112.28424835205078,-119.25175476074219,-999.9560546875,-4.538127422332764,49.12710952758789,-34.22832107543945
2332,1929,-112.28424835205078,-119.25175476074219,-999.9560546875,-4.538127422332764,49.12710952758789,-34.22832107543945
2328,1929,-112.28424835205078,-119.25175476074219,-999.9560546875,-4.538127422332764,49.12710952758789,-34.22832107543945
2344,1929,-112.28424835205078,-119.25175476074219,-999.9560546875,-4.538127422332764,49.12710952758789,-34.22832107543945
2403,1930,-5.213707447052002,16.1912784576416,-945.0323486328125,22.668500900268555,-4.519540786743164,-7.439088821411133
2357,1930,-5.213707447052002,16.1912784576416,-945.0323486328125,22.668500900268555,-4.519540786743164,-7.439088821411133
2356,1930,-5.213707447052002,16.1912784576416,-945.0323486328125,22.668500900268555,-4.519540786743164,-7.439088821411133
2373,1930,-5.213707447052002,16.1912784576416,-945.0323486328125,22.668500900268555,-4.519540786743164,-7.439088821411133
2334,1930,-5.213707447052002,16.1912784576416,-945.0323486328125,22.668500900268555,-4.519540786743164,-7.439088821411133
2288,1930,-5.213707447052002,16.1912784576416,-945.0323486328125,22.668500900268555,-4.519540786743164,-7.439088821411133
2287,1930,-5.213707447052002,16.1912784576416,-945.0323486328125,22.668500900268555,-4.519540786743164,-7.439088821411133
2304,1930,-5.213707447052002,16.1912784576416,-945.0323486328125,22.668500900268555,-4.519540786743164,-7.439088821411133
2405,1931,7.138795375823975,-0.10300853103399277,-946.5740966796875,25.782262802124023,8.22159481048584,5.025856018066406
2348,1931,7.138795375823975,-0.10300853103399277,-946.5740966796875,25.782262802124023,8.22159481048584,5.025856018066406
2363,1931,7.138795375823975,-0.10300853103399277,-946.5740966796875,25.782262802124023,8.22159481048584,5.025856018066406
2383,1931,7.138795375823975,-0.10300853103399277,-946.5740966796875,25.782262802124023,8.22159481048584,5.025856018066406
2336,1931,7.138795375823975,-0.10300853103399277,-946.5740966796875,25.782262802124023,8.22159481048584,5.025856018066406
2279,1931,7.138795375823975,-0.10300853103399277,-946.5740966796875,25.782262802124023,8.22159481048584,5.025856018066406
2294,1931,7.138795375823975,-0.10300853103399277,-946.5740966796875,25.782262802124023,8.22159481048584,5.025856018066406
2314,1931,7.138795375823975,-0.10300853103399277,-946.5740966796875,25.782262802124023,8.22159481048584,5.025856018066406
2382,1932,-71.03450012207031,-106.13003540039062,-1080.880615234375,22.50174331665039,-60.26486587524414,-31.360618591308594
2406,1932,-71.03450012207031,-106.13003540039062,-1080.880615234375,22.50174331665039,-60.26486587524414,-31.360618591308594
2395,1932,-71.03450012207031,-106.13003540039062,-1080.880615234375,22.50174331665039,-60.26486587524414,-31.360618591308594
2383,1932,-71.03450012207031,-106.13003540039062,-1080.880615234375,22.50174331665039,-60.26486587524414,-31.360618591308594
2313,1932,-71.03450012207031,-106.13003540039062,-1080.880615234375,22.50174331665039,-60.26486587524414,-31.360618591308594
2337,1932,-71.03450012207031,-106.13003540039062,-1080.880615234375,22.50174331665039,-60.26486587524414,-31.360618591308594
2326,1932,-71.03450012207031,-106.13003540039062,-1080.880615234375,22.50174331665039,-60.26486587524414,-31.360618591308594
2314,1932,-71.03450012207031,-106.13003540039062,-1080.880615234375,22.50174331665039,-60.26486587524414,-31.360618591308594
2406,1933,-107.7238998413086,-117.2156982421875,-987.900390625,-4.290958404541016,-59.93868637084961,6.56437873840332
2389,1933,-107.7238998413086,-117.2156982421875,-987.900390625,-4.290958404541016,-59.93868637084961,6.56437873840332
2415,1933,-107.7238998413086,-117.2156982421875,-987.900390625,-4.290958404541016,-59.93868637084961,6.56437873840332
2400,1933,-107.7238998413086,-117.2156982421875,-987.900390625,-4.290958404541016,-59.93868637084961,6.56437873840332
2337,1933,-107.7238998413086,-117.2156982421875,-987.900390625,-4.290958404541016,-59.93868637084961,6.56437873840332
2320,1933,-107.7238998413086,-117.2156982421875,-987.900390625,-4.290958404541016,-59.93868637084961,6.56437873840332
2346,1933,-107.7238998413086,-117.2156982421875,-987.900390625,-4.290958404541016,-59.93868637084961,6.56437873840332
2331,1933,-107.7238998413086,-117.2156982421875,-987.900390625,-4.290958404541016,-59.93868637084961,6.56437873840332
2408,1934,-87.03585815429688,-54.574485778808594,-1090.745361328125,-31.11979866027832,-35.46049499511719,53.68439865112305
2369,1934,-87.03585815429688,-54.574485778808594,-1090.745361328125,-31.11979866027832,-35.46049499511719,53.68439865112305
2370,1934,-87.03585815429688,-54.574485778808594,-1090.745361328125,-31.11979866027832,-35.46049499511719,53.68439865112305
2394,1934,-87.03585815429688,-54.574485778808594,-1090.745361328125,-31.11979866027832,-35.46049499511719,53.68439865112305
2339,1934,-87.03585815429688,-54.574485778808594,-1090.745361328125,-31.11979866027832,-35.46049499511719,53.68439865112305
2300,1934,-87.03585815429688,-54.574485778808594,-1090.745361328125,-31.11979866027832,-35.46049499511719,53.68439865112305
2301,1934,-87.03585815429688,-54.574485778808594,-1090.745361328125,-31.11979866027832,-35.46049499511719,53.68439865112305
2325,1934,-87.03585815429688,-54.574485778808594,-1090.745361328125,-31.11979866027832,-35.46049499511719,53.68439865112305
2409,1935,-105.43000030517578,-38.7197265625,-1088.1798095703125,-0.9811360239982605,-5.7759013175964355,59.98723220825195
2387,1935,-105.43000030517578,-38.7197265625,-1088.1798095703125,-0.9811360239982605,-5.7759013175964355,59.98723220825195
2372,1935,-105.43000030517578,-38.7197265625,-1088.1798095703125,-0.9811360239982605,-5.7759013175964355,59.98723220825195
2393,1935,-105.43000030517578,-38.7197265625,-1088.1798095703125,-0.9811360239982605,-5.7759013175964355,59.98723220825195
2340,1935,-105.43000030517578,-38.7197265625,-1088.1798095703125,-0.9811360239982605,-5.7759013175964355,59.98723220825195
2318,1935,-105.43000030517578,-38.7197265625,-1088.1798095703125,-0.9811360239982605,-5.7759013175964355,59.98723220825195
2303,1935,-105.43000030517578,-38.7197265625,-1088.1798095703125,-0.9811360239982605,-5.7759013175964355,59.98723220825195
2324,1935,-105.43000030517578,-38.7197265625,-1088.1798095703125,-0.9811360239982605,-5.7759013175964355,59.98723220825195
2411,1936,-54.20519256591797,-100.78167724609375,-1090.452880859375,23.992586135864258,59.80960464477539,23.530384063720703
2386,1936,-54.20519256591797,-100.78167724609375,-1090.452880859375,23.992586135864258,59.80960464477539,23.530384063720703
2375,1936,-54.20519256591797,-100.78167724609375,-1090.452880859375,23.992586135864258,59.80960464477539,23.530384063720703
2390,1936,-54.20519256591797,-100.78167724609375,-1090.452880859375,23.992586135864258,59.80960464477539,23.530384063720703
2342,1936,-54.20519256591797,-100.78167724609375,-1090.452880859375,23.992586135864258,59.80960464477539,23.530384063720703
2317,1936,-54.20519256591797,-100.78167724609375,-1090.452880859375,23.992586135864258,59.80960464477539,23.530384063720703
2306,1936,-54.20519256591797,-100.78167724609375,-1090.452880859375,23.992586135864258,59.80960464477539,23.530384063720703
2321,1936,-54.20519256591797,-100.78167724609375,-1090.452880859375,23.992586135864258,59.80960464477539,23.530384063720703
2412,1937,-26.773136138916016,-96.08731079101562,-1085.4661865234375,-8.18073558807373,52.56013488769531,-6.544735431671143
2376,1937,-26.773136138916016,-96.08731079101562,-1085.4661865234375,-8.18073558807373,52.56013488769531,-6.544735431671143
2377,1937,-26.773136138916016,-96.08731079101562,-1085.4661865234375,-8.18073558807373,52.56013488769531,-6.544735431671143
2397,1937,-26.773136138916016,-96.08731079101562,-1085.4661865234375,-8.18073558807373,52.56013488769531,-6.544735431671143
2343,1937,-26.773136138916016,-96.08731079101562,-1085.4661865234375,-8.18073558807373,52.56013488769531,-6.544735431671143
2307,1937,-26.773136138916016,-96.08731079101562,-1085.4661865234375,-8.18073558807373,52.56013488769531,-6.544735431671143
2308,1937,-26.773136138916016,-96.08731079101562,-1085.4661865234375,-8.18073558807373,52.56013488769531,-6.544735431671143
2328,1937,-26.773136138916016,-96.08731079101562,-1085.4661865234375,-8.18073558807373,52.56013488769531,-6.544735431671143
2414,1938,-109.71459197998047,-59.645347595214844,-1066.4202880859375,-14.802779197692871,7.98631477355957,-65.89564514160156
2379,1938,-109.71459197998047,-59.645347595214844,-1066.4202880859375,-14.802779197692871,7.98631477355957,-65.89564514160156
2384,1938,-109.71459197998047,-59.645347595214844,-1066.4202880859375,-14.802779197692871,7.98631477355957,-65.89564514160156
2396,1938,-109.71459197998047,-59.645347595214844,-1066.4202880859375,-14.802779197692871,7.98631477355957,-65.89564514160156
2345,1938,-109.71459197998047,-59.645347595214844,-1066.4202880859375,-14.802779197692871,7.98631477355957,-65.89564514160156
2310,1938,-109.71459197998047,-59.645347595214844,-1066.4202880859375,-14.802779197692871,7.98631477355957,-65.89564514160156
2315,1938,-109.71459197998047,-59.645347595214844,-1066.4202880859375,-14.802779197692871,7.98631477355957,-65.89564514160156
2327,1938,-109.71459197998047,-59.645347595214844,-1066.4202880859375,-14.802779197692871,7.98631477355957,-65.89564514160156
2439,1939,-254.06414794921875,-155.2537384033203,-1096.0587158203125,-30.112964630126953,-41.47914505004883,145.69126892089844
2428,1939,-254.06414794921875,-155.2537384033203,-1096.0587158203125,-30.112964630126953,-41.47914505004883,145.69126892089844
2427,1939,-254.06414794921875,-155.2537384033203,-1096.0587158203125,-30.112964630126953,-41.47914505004883,145.69126892089844
2456,1939,-254.06414794921875,-155.2537384033203,-1096.0587158203125,-30.112964630126953,-41.47914505004883,145.69126892089844
2370,1939,-254.06414794921875,-155.2537384033203,-1096.0587158203125,-30.112964630126953,-41.47914505004883,145.69126892089844
2359,1939,-254.06414794921875,-155.2537384033203,-1096.0587158203125,-30.112964630126953,-41.47914505004883,145.69126892089844
2358,1939,-254.06414794921875,-155.2537384033203,-1096.0587158203125,-30.112964630126953,-41.47914505004883,145.69126892089844
2387,1939,-254.06414794921875,-155.2537384033203,-1096.0587158203125,-30.112964630126953,-41.47914505004883,145.69126892089844
2456,1940,-263.2560119628906,-148.55300903320312,-1093.12109375,-1.017604947090149,-4.410472869873047,154.0972442626953
2427,1940,-263.2560119628906,-148.55300903320312,-1093.12109375,-1.017604947090149,-4.410472869873047,154.0972442626953
2436,1940,-263.2560119628906,-148.55300903320312,-1093.12109375,-1.017604947090149,-4.410472869873047,154.0972442626953
2441,1940,-263.2560119628906,-148.55300903320312,-1093.12109375,-1.017604947090149,-4.410472869873047,154.0972442626953
2387,1940,-263.2560119628906,-148.55300903320312,-1093.12109375,-1.017604947090149,-4.410472869873047,154.0972442626953
2358,1940,-263.2560119628906,-148.55300903320312,-1093.12109375,-1.017604947090149,-4.410472869873047,154.0972442626953
2367,1940,-263.2560119628906,-148.55300903320312,-1093.12109375,-1.017604947090149,-4.410472869873047,154.0972442626953
2372,1940,-263.2560119628906,-148.55300903320312,-1093.12109375,-1.017604947090149,-4.410472869873047,154.0972442626953
2437,1941,-174.5445098876953,-243.45281982421875,-1091.7716064453125,-43.06672668457031,-145.30233764648438,67.68814849853516
2457,1941,-174.5445098876953,-243.45281982421875,-1091.7716064453125,-43.06672668457031,-145.30233764648438,67.68814849853516
2440,1941,-174.5445098876953,-243.45281982421875,-1091.7716064453125,-43.06672668457031,-145.30233764648438,67.68814849853516
2430,1941,-174.5445098876953,-243.45281982421875,-1091.7716064453125,-43.06672668457031,-145.30233764648438,67.68814849853516
2368,1941,-174.5445098876953,-243.45281982421875,-1091.7716064453125,-43.06672668457031,-145.30233764648438,67.68814849853516
2388,1941,-174.5445098876953,-243.45281982421875,-1091.7716064453125,-43.06672668457031,-145.30233764648438,67.68814849853516
2371,1941,-174.5445098876953,-243.45281982421875,-1091.7716064453125,-43.06672668457031,-145.30233764648438,67.68814849853516
2361,1941,-174.5445098876953,-243.45281982421875,-1091.7716064453125,-43.06672668457031,-145.30233764648438,67.68814849853516
2428,1942,-231.13265991210938,-183.3279571533203,-1097.3734130859375,-51.48586654663086,-86.34693908691406,133.6670684814453
2439,1942,-231.13265991210938,-183.3279571533203,-1097.3734130859375,-51.48586654663086,-86.34693908691406,133.6670684814453
2438,1942,-231.13265991210938,-183.3279571533203,-1097.3734130859375,-51.48586654663086,-86.34693908691406,133.6670684814453
2429,1942,-231.13265991210938,-183.3279571533203,-1097.3734130859375,-51.48586654663086,-86.34693908691406,133.6670684814453
2359,1942,-231.13265991210938,-183.3279571533203,-1097.3734130859375,-51.48586654663086,-86.34693908691406,133.6670684814453
2370,1942,-231.13265991210938,-183.3279571533203,-1097.3734130859375,-51.48586654663086,-86.34693908691406,133.6670684814453
2369,1942,-231.13265991210938,-183.3279571533203,-1097.3734130859375,-51.48586654663086,-86.34693908691406,133.6670684814453
2360,1942,-231.13265991210938,-183.3279571533203,-1097.3734130859375,-51.48586654663086,-86.34693908691406,133.6670684814453
2467,1943,-277.9538879394531,-286.0979919433594,-942.3666381835938,2.1129796504974365,69.7242431640625,6.637707233428955
2480,1943,-277.9538879394531,-286.0979919433594,-942.3666381835938,2.1129796504974365,69.7242431640625,6.637707233428955
2459,1943,-277.9538879394531,-286.0979919433594,-942.3666381835938,2.1129796504974365,69.7242431640625,6.637707233428955
2470,1943,-277.9538879394531,-286.0979919433594,-942.3666381835938,2.1129796504974365,69.7242431640625,6.637707233428955
2398,1943,-277.9538879394531,-286.0979919433594,-942.3666381835938,2.1129796504974365,69.7242431640625,6.637707233428955
2411,1943,-277.9538879394531,-286.0979919433594,-942.3666381835938,2.1129796504974365,69.7242431640625,6.637707233428955
2390,1943,-277.9538879394531,-286.0979919433594,-942.3666381835938,2.1129796504974365,69.7242431640625,6.637707233428955
2401,1943,-277.9538879394531,-286.0979919433594,-942.3666381835938,2.1129796504974365,69.7242431640625,6.637707233428955
2483,1944,-273.2650451660156,-275.85919189453125,-921.768798828125,-2.4841482639312744,69.00630187988281,-129.34730529785156
2461,1944,-273.2650451660156,-275.85919189453125,-921.768798828125,-2.4841482639312744,69.00630187988281,-129.34730529785156
2447,1944,-273.2650451660156,-275.85919189453125,-921.768798828125,-2.4841482639312744,69.00630187988281,-129.34730529785156
2448,1944,-273.2650451660156,-275.85919189453125,-921.768798828125,-2.4841482639312744,69.00630187988281,-129.34730529785156
2414,1944,-273.2650451660156,-275.85919189453125,-921.768798828125,-2.4841482639312744,69.00630187988281,-129.34730529785156
2392,1944,-273.2650451660156,-275.85919189453125,-921.768798828125,-2.4841482639312744,69.00630187988281,-129.34730529785156
2378,1944,-273.2650451660156,-275.85919189453125,-921.768798828125,-2.4841482639312744,69.00630187988281,-129.34730529785156
2379,1944,-273.2650451660156,-275.85919189453125,-921.768798828125,-2.4841482639312744,69.00630187988281,-129.34730529785156
2471,1945,-286.8525085449219,-288.1806945800781,-920.999267578125,1.7630133628845215,25.27593421936035,12.65215015411377
2468,1945,-286.8525085449219,-288.1806945800781,-920.999267578125,1.7630133628845215,25.27593421936035,12.65215015411377
2467,1945,-286.8525085449219,-288.1806945800781,-920.999267578125,1.7630133628845215,25.27593421936035,12.65215015411377
2470,1945,-286.8525085449219,-288.1806945800781,-920.999267578125,1.7630133628845215,25.27593421936035,12.65215015411377
2402,1945,-286.8525085449219,-288.1806945800781,-920.999267578125,1.7630133628845215,25.27593421936035,12.65215015411377
2399,1945,-286.8525085449219,-288.1806945800781,-920.999267578125,1.7630133628845215,25.27593421936035,12.65215015411377
2398,1945,-286.8525085449219,-288.1806945800781,-920.999267578125,1.7630133628845215,25.27593421936035,12.65215015411377
2401,1945,-286.8525085449219,-288.1806945800781,-920.999267578125,1.7630133628845215,25.27593421936035,12.65215015411377
2462,1946,-286.73724365234375,-279.7662048339844,-944.2913818359375,1.883571743965149,2.035102367401123,73.43042755126953
2479,1946,-286.73724365234375,-279.7662048339844,-944.2913818359375,1.883571743965149,2.035102367401123,73.43042755126953
2467,1946,-286.73724365234375,-279.7662048339844,-944.2913818359375,1.883571743965149,2.035102367401123,73.43042755126953
2468,1946,-286.73724365234375,-279.7662048339844,-944.2913818359375,1.883571743965149,2.035102367401123,73.43042755126953
2393,1946,-286.73724365234375,-279.7662048339844,-944.2913818359375,1.883571743965149,2.035102367401123,73.43042755126953
2410,1946,-286.73724365234375,-279.7662048339844,-944.2913818359375,1.883571743965149,2.035102367401123,73.43042755126953
2398,1946,-286.73724365234375,-279.7662048339844,-944.2913818359375,1.883571743965149,2.035102367401123,73.43042755126953
2399,1946,-286.73724365234375,-279.7662048339844,-944.2913818359375,1.883571743965149,2.035102367401123,73.43042755126953
2442,1947,-272.3691101074219,-280.5579528808594,-920.9512939453125,1.5405350923538208,114.2496109008789,102.32427978515625
2455,1947,-272.3691101074219,-280.5579528808594,-920.9512939453125,1.5405350923538208,114.2496109008789,102.32427978515625
2480,1947,-272.3691101074219,-280.5579528808594,-920.9512939453125,1.5405350923538208,114.2496109008789,102.32427978515625
2467,1947,-272.3691101074219,-280.5579528808594,-920.9512939453125,1.5405350923538208,114.2496109008789,102.32427978515625
2373,1947,-272.3691101074219,-280.5579528808594,-920.9512939453125,1.5405350923538208,114.2496109008789,102.32427978515625
2386,1947,-272.3691101074219,-280.5579528808594,-920.9512939453125,1.5405350923538208,114.2496109008789,102.32427978515625
2411,1947,-272.3691101074219,-280.5579528808594,-920.9512939453125,1.5405350923538208,114.2496109008789,102.32427978515625
2398,1947,-272.3691101074219,-280.5579528808594,-920.9512939453125,1.5405350923538208,114.2496109008789,102.32427978515625
2482,1948,-260.31683349609375,-266.4389953613281,-930.328857421875,-5.6090087890625,157.6826171875,-74.98799896240234
2466,1948,-260.31683349609375,-266.4389953613281,-930.328857421875,-5.6090087890625,157.6826171875,-74.98799896240234
2446,1948,-260.31683349609375,-266.4389953613281,-930.328857421875,-5.6090087890625,157.6826171875,-74.98799896240234
2454,1948,-260.31683349609375,-266.4389953613281,-930.328857421875,-5.6090087890625,157.6826171875,-74.98799896240234
2413,1948,-260.31683349609375,-266.4389953613281,-930.328857421875,-5.6090087890625,157.6826171875,-74.98799896240234
2397,1948,-260.31683349609375,-266.4389953613281,-930.328857421875,-5.6090087890625,157.6826171875,-74.98799896240234
2377,1948,-260.31683349609375,-266.4389953613281,-930.328857421875,-5.6090087890625,157.6826171875,-74.98799896240234
2385,1948,-260.31683349609375,-266.4389953613281,-930.328857421875,-5.6090087890625,157.6826171875,-74.98799896240234
2476,1949,-283.4687805175781,-288.0086669921875,-936.7271118164062,5.56670618057251,-33.1607666015625,-46.847633361816406
2471,1949,-283.4687805175781,-288.0086669921875,-936.7271118164062,5.56670618057251,-33.1607666015625,-46.847633361816406
2450,1949,-283.4687805175781,-288.0086669921875,-936.7271118164062,5.56670618057251,-33.1607666015625,-46.847633361816406
2464,1949,-283.4687805175781,-288.0086669921875,-936.7271118164062,5.56670618057251,-33.1607666015625,-46.847633361816406
2407,1949,-283.4687805175781,-288.0086669921875,-936.7271118164062,5.56670618057251,-33.1607666015625,-46.847633361816406
2402,1949,-283.4687805175781,-288.0086669921875,-936.7271118164062,5.56670618057251,-33.1607666015625,-46.847633361816406
2381,1949,-283.4687805175781,-288.0086669921875,-936.7271118164062,5.56670618057251,-33.1607666015625,-46.847633361816406
2395,1949,-283.4687805175781,-288.0086669921875,-936.7271118164062,5.56670618057251,-33.1607666015625,-46.847633361816406
2450,1950,-278.02178955078125,-266.7795104980469,-927.1408081054688,-1.4869245290756226,-73.83223724365234,-123.01246643066406
2465,1950,-278.02178955078125,-266.7795104980469,-927.1408081054688,-1.4869245290756226,-73.83223724365234,-123.01246643066406
2473,1950,-278.02178955078125,-266.7795104980469,-927.1408081054688,-1.4869245290756226,-73.83223724365234,-123.01246643066406
2474,1950,-278.02178955078125,-266.7795104980469,-927.1408081054688,-1.4869245290756226,-73.83223724365234,-123.01246643066406
2381,1950,-278.02178955078125,-266.7795104980469,-927.1408081054688,-1.4869245290756226,-73.83223724365234,-123.01246643066406
2396,1950,-278.02178955078125,-266.7795104980469,-927.1408081054688,-1.4869245290756226,-73.83223724365234,-123.01246643066406
2404,1950,-278.02178955078125,-266.7795104980469,-927.1408081054688,-1.4869245290756226,-73.83223724365234,-123.01246643066406
2405,1950,-278.02178955078125,-266.7795104980469,-927.1408081054688,-1.4869245290756226,-73.83223724365234,-123.01246643066406
2457,1951,-271.0495910644531,-268.47454833984375,-930.96337890625,-5.636106491088867,-136.01470947265625,115.67786407470703
2438,1951,-271.0495910644531,-268.47454833984375,-930.96337890625,-5.636106491088867,-136.01470947265625,115.67786407470703
2477,1951,-271.0495910644531,-268.47454833984375,-930.96337890625,-5.636106491088867,-136.01470947265625,115.67786407470703
2460,1951,-271.0495910644531,-268.47454833984375,-930.96337890625,-5.636106491088867,-136.01470947265625,115.67786407470703
2388,1951,-271.0495910644531,-268.47454833984375,-930.96337890625,-5.636106491088867,-136.01470947265625,115.67786407470703
2369,1951,-271.0495910644531,-268.47454833984375,-930.96337890625,-5.636106491088867,-136.01470947265625,115.67786407470703
2408,1951,-271.0495910644531,-268.47454833984375,-930.96337890625,-5.636106491088867,-136.01470947265625,115.67786407470703
2391,1951,-271.0495910644531,-268.47454833984375,-930.96337890625,-5.636106491088867,-136.01470947265625,115.67786407470703
2484,1952,-265.75830078125,-271.0391540527344,-928.0059204101562,-2.1701786518096924,-143.03118896484375,69.64082336425781
2440,1952,-265.75830078125,-271.0391540527344,-928.0059204101562,-2.1701786518096924,-143.03118896484375,69.64082336425781
2457,1952,-265.75830078125,-271.0391540527344,-928.0059204101562,-2.1701786518096924,-143.03118896484375,69.64082336425781
2460,1952,-265.75830078125,-271.0391540527344,-928.0059204101562,-2.1701786518096924,-143.03118896484375,69.64082336425781
2415,1952,-265.75830078125,-271.0391540527344,-928.0059204101562,-2.1701786518096924,-143.03118896484375,69.64082336425781
2371,1952,-265.75830078125,-271.0391540527344,-928.0059204101562,-2.1701786518096924,-143.03118896484375,69.64082336425781
2388,1952,-265.75830078125,-271.0391540527344,-928.0059204101562,-2.1701786518096924,-143.03118896484375,69.64082336425781
2391,1952,-265.75830078125,-271.0391540527344,-928.0059204101562,-2.1701786518096924,-143.03118896484375,69.64082336425781
2444,1953,-262.99481201171875,-272.731201171875,-931.5375366210938,-1.3961635828018188,180.33377075195312,27.297426223754883
2445,1953,-262.99481201171875,-272.731201171875,-931.5375366210938,-1.3961635828018188,180.33377075195312,27.297426223754883
2481,1953,-262.99481201171875,-272.731201171875,-931.5375366210938,-1.3961635828018188,180.33377075195312,27.297426223754883
2459,1953,-262.99481201171875,-272.731201171875,-931.5375366210938,-1.3961635828018188,180.33377075195312,27.297426223754883
2375,1953,-262.99481201171875,-272.731201171875,-931.5375366210938,-1.3961635828018188,180.33377075195312,27.297426223754883
2376,1953,-262.99481201171875,-272.731201171875,-931.5375366210938,-1.3961635828018188,180.33377075195312,27.297426223754883
2412,1953,-262.99481201171875,-272.731201171875,-931.5375366210938,-1.3961635828018188,180.33377075195312,27.297426223754883
2390,1953,-262.99481201171875,-272.731201171875,-931.5375366210938,-1.3961635828018188,180.33377075195312,27.297426223754883
2429,1954,-199.07818603515625,-213.45042419433594,-1094.20458984375,-55.97178268432617,-112.72162628173828,101.21879577636719
2438,1954,-199.07818603515625,-213.45042419433594,-1094.20458984375,-55.97178268432617,-112.72162628173828,101.21879577636719
2457,1954,-199.07818603515625,-213.45042419433594,-1094.20458984375,-55.97178268432617,-112.72162628173828,101.21879577636719
2437,1954,-199.07818603515625,-213.45042419433594,-1094.20458984375,-55.97178268432617,-112.72162628173828,101.21879577636719
2360,1954,-199.07818603515625,-213.45042419433594,-1094.20458984375,-55.97178268432617,-112.72162628173828,101.21879577636719
2369,1954,-199.07818603515625,-213.45042419433594,-1094.20458984375,-55.97178268432617,-112.72162628173828,101.21879577636719
2388,1954,-199.07818603515625,-213.45042419433594,-1094.20458984375,-55.97178268432617,-112.72162628173828,101.21879577636719
2368,1954,-199.07818603515625,-213.45042419433594,-1094.20458984375,-55.97178268432617,-112.72162628173828,101.21879577636719
2426,1955,-257.2286071777344,-167.02098083496094,-1088.736328125,27.891199111938477,43.14764404296875,154.14271545410156
2472,1955,-257.2286071777344,-167.02098083496094,-1088.736328125,27.891199111938477,43.14764404296875,154.14271545410156
2441,1955,-257.2286071777344,-167.02098083496094,-1088.736328125,27.891199111938477,43.14764404296875,154.14271545410156
2436,1955,-257.2286071777344,-167.02098083496094,-1088.736328125,27.891199111938477,43.14764404296875,154.14271545410156
2357,1955,-257.2286071777344,-167.02098083496094,-1088.736328125,27.891199111938477,43.14764404296875,154.14271545410156
2403,1955,-257.2286071777344,-167.02098083496094,-1088.736328125,27.891199111938477,43.14764404296875,154.14271545410156
2372,1955,-257.2286071777344,-167.02098083496094,-1088.736328125,27.891199111938477,43.14764404296875,154.14271545410156
2367,1955,-257.2286071777344,-167.02098083496094,-1088.736328125,27.891199111938477,43.14764404296875,154.14271545410156
2442,1956,-202.97799682617188,-216.41893005371094,-1079.949951171875,51.988502502441406,118.90518188476562,99.43572235107422
2425,1956,-202.97799682617188,-216.41893005371094,-1079.949951171875,51.988502502441406,118.90518188476562,99.43572235107422
2435,1956,-202.97799682617188,-216.41893005371094,-1079.949951171875,51.988502502441406,118.90518188476562,99.43572235107422
2455,1956,-202.97799682617188,-216.41893005371094,-1079.949951171875,51.988502502441406,118.90518188476562,99.43572235107422
2373,1956,-202.97799682617188,-216.41893005371094,-1079.949951171875,51.988502502441406,118.90518188476562,99.43572235107422
2356,1956,-202.97799682617188,-216.41893005371094,-1079.949951171875,51.988502502441406,118.90518188476562,99.43572235107422
2366,1956,-202.97799682617188,-216.41893005371094,-1079.949951171875,51.988502502441406,118.90518188476562,99.43572235107422
2386,1956,-202.97799682617188,-216.41893005371094,-1079.949951171875,51.988502502441406,118.90518188476562,99.43572235107422
2443,1957,-155.2038116455078,-262.0052795410156,-1093.29443359375,-16.103845596313477,-152.3828582763672,23.56922721862793
2431,1957,-155.2038116455078,-262.0052795410156,-1093.29443359375,-16.103845596313477,-152.3828582763672,23.56922721862793
2430,1957,-155.2038116455078,-262.0052795410156,-1093.29443359375,-16.103845596313477,-152.3828582763672,23.56922721862793
2440,1957,-155.2038116455078,-262.0052795410156,-1093.29443359375,-16.103845596313477,-152.3828582763672,23.56922721862793
2374,1957,-155.2038116455078,-262.0052795410156,-1093.29443359375,-16.103845596313477,-152.3828582763672,23.56922721862793
2362,1957,-155.2038116455078,-262.0052795410156,-1093.29443359375,-16.103845596313477,-152.3828582763672,23.56922721862793
2361,1957,-155.2038116455078,-262.0052795410156,-1093.29443359375,-16.103845596313477,-152.3828582763672,23.56922721862793
2371,1957,-155.2038116455078,-262.0052795410156,-1093.29443359375,-16.103845596313477,-152.3828582763672,23.56922721862793
2455,1958,-172.6607208251953,-244.61279296875,-1087.5008544921875,40.700809478759766,142.70152282714844,61.512657165527344
2435,1958,-172.6607208251953,-244.61279296875,-1087.5008544921875,40.700809478759766,142.70152282714844,61.512657165527344
2424,1958,-172.6607208251953,-244.61279296875,-1087.5008544921875,40.700809478759766,142.70152282714844,61.512657165527344
2444,1958,-172.6607208251953,-244.61279296875,-1087.5008544921875,40.700809478759766,142.70152282714844,61.512657165527344
2386,1958,-172.6607208251953,-244.61279296875,-1087.5008544921875,40.700809478759766,142.70152282714844,61.512657165527344
2366,1958,-172.6607208251953,-244.61279296875,-1087.5008544921875,40.700809478759766,142.70152282714844,61.512657165527344
2355,1958,-172.6607208251953,-244.61279296875,-1087.5008544921875,40.700809478759766,142.70152282714844,61.512657165527344
2375,1958,-172.6607208251953,-244.61279296875,-1087.5008544921875,40.700809478759766,142.70152282714844,61.512657165527344
2479,1959,-280.3262634277344,-273.41912841796875,-921.0624389648438,-0.8859018683433533,86.8140640258789,124.30126190185547
2472,1959,-280.3262634277344,-273.41912841796875,-921.0624389648438,-0.8859018683433533,86.8140640258789,124.30126190185547
2442,1959,-280.3262634277344,-273.41912841796875,-921.0624389648438,-0.8859018683433533,86.8140640258789,124.30126190185547
2467,1959,-280.3262634277344,-273.41912841796875,-921.0624389648438,-0.8859018683433533,86.8140640258789,124.30126190185547
2410,1959,-280.3262634277344,-273.41912841796875,-921.0624389648438,-0.8859018683433533,86.8140640258789,124.30126190185547
2403,1959,-280.3262634277344,-273.41912841796875,-921.0624389648438,-0.8859018683433533,86.8140640258789,124.30126190185547
2373,1959,-280.3262634277344,-273.41912841796875,-921.0624389648438,-0.8859018683433533,86.8140640258789,124.30126190185547
2398,1959,-280.3262634277344,-273.41912841796875,-921.0624389648438,-0.8859018683433533,86.8140640258789,124.30126190185547
2444,1960,-147.62548828125,-260.0816650390625,-1094.16455078125,15.419776916503906,152.1193084716797,17.437313079833984
2424,1960,-147.62548828125,-260.0816650390625,-1094.16455078125,15.419776916503906,152.1193084716797,17.437313079833984
2423,1960,-147.62548828125,-260.0816650390625,-1094.16455078125,15.419776916503906,152.1193084716797,17.437313079833984
2445,1960,-147.62548828125,-260.0816650390625,-1094.16455078125,15.419776916503906,152.1193084716797,17.437313079833984
2375,1960,-147.62548828125,-260.0816650390625,-1094.16455078125,15.419776916503906,152.1193084716797,17.437313079833984
2355,1960,-147.62548828125,-260.0816650390625,-1094.16455078125,15.419776916503906,152.1193084716797,17.437313079833984
2354,1960,-147.62548828125,-260.0816650390625,-1094.16455078125,15.419776916503906,152.1193084716797,17.437313079833984
2376,1960,-147.62548828125,-260.0816650390625,-1094.16455078125,15.419776916503906,152.1193084716797,17.437313079833984
2445,1961,-146.3992462158203,-259.7953796386719,-1098.3284912109375,-15.508487701416016,148.77513122558594,-20.963327407836914
2423,1961,-146.3992462158203,-259.7953796386719,-1098.3284912109375,-15.508487701416016,148.77513122558594,-20.963327407836914
2422,1961,-146.3992462158203,-259.7953796386719,-1098.3284912109375,-15.508487701416016,148.77513122558594,-20.963327407836914
2446,1961,-146.3992462158203,-259.7953796386719,-1098.3284912109375,-15.508487701416016,148.77513122558594,-20.963327407836914
2376,1961,-146.3992462158203,-259.7953796386719,-1098.3284912109375,-15.508487701416016,148.77513122558594,-20.963327407836914
2354,1961,-146.3992462158203,-259.7953796386719,-1098.3284912109375,-15.508487701416016,148.77513122558594,-20.963327407836914
2353,1961,-146.3992462158203,-259.7953796386719,-1098.3284912109375,-15.508487701416016,148.77513122558594,-20.963327407836914
2377,1961,-146.3992462158203,-259.7953796386719,-1098.3284912109375,-15.508487701416016,148.77513122558594,-20.963327407836914
2476,1962,-276.8360595703125,-280.24969482421875,-937.4262084960938,3.0837435722351074,-66.67282104492188,-4.820845603942871
2464,1962,-276.8360595703125,-280.24969482421875,-937.4262084960938,3.0837435722351074,-66.67282104492188,-4.820845603942871
2475,1962,-276.8360595703125,-280.24969482421875,-937.4262084960938,3.0837435722351074,-66.67282104492188,-4.820845603942871
2469,1962,-276.8360595703125,-280.24969482421875,-937.4262084960938,3.0837435722351074,-66.67282104492188,-4.820845603942871
2407,1962,-276.8360595703125,-280.24969482421875,-937.4262084960938,3.0837435722351074,-66.67282104492188,-4.820845603942871
2395,1962,-276.8360595703125,-280.24969482421875,-937.4262084960938,3.0837435722351074,-66.67282104492188,-4.820845603942871
2406,1962,-276.8360595703125,-280.24969482421875,-937.4262084960938,3.0837435722351074,-66.67282104492188,-4.820845603942871
2400,1962,-276.8360595703125,-280.24969482421875,-937.4262084960938,3.0837435722351074,-66.67282104492188,-4.820845603942871
2431,1963,-158.56298828125,-262.92584228515625,-1089.534912109375,15.07627010345459,-157.87271118164062,-18.595457077026367
2443,1963,-158.56298828125,-262.92584228515625,-1089.534912109375,15.07627010345459,-157.87271118164062,-18.595457077026367
2451,1963,-158.56298828125,-262.92584228515625,-1089.534912109375,15.07627010345459,-157.87271118164062,-18.595457077026367
2416,1963,-158.56298828125,-262.92584228515625,-1089.534912109375,15.07627010345459,-157.87271118164062,-18.595457077026367
2362,1963,-158.56298828125,-262.92584228515625,-1089.534912109375,15.07627010345459,-157.87271118164062,-18.595457077026367
2374,1963,-158.56298828125,-262.92584228515625,-1089.534912109375,15.07627010345459,-157.87271118164062,-18.595457077026367
2382,1963,-158.56298828125,-262.92584228515625,-1089.534912109375,15.07627010345459,-157.87271118164062,-18.595457077026367
2347,1963,-158.56298828125,-262.92584228515625,-1089.534912109375,15.07627010345459,-157.87271118164062,-18.595457077026367
2446,1964,-167.0663299560547,-243.77670288085938,-1098.1065673828125,-43.50895690917969,144.0452423095703,-64.25354766845703
2422,1964,-167.0663299560547,-243.77670288085938,-1098.1065673828125,-43.50895690917969,144.0452423095703,-64.25354766845703
2434,1964,-167.0663299560547,-243.77670288085938,-1098.1065673828125,-43.50895690917969,144.0452423095703,-64.25354766845703
2454,1964,-167.0663299560547,-243.77670288085938,-1098.1065673828125,-43.50895690917969,144.0452423095703,-64.25354766845703
2377,1964,-167.0663299560547,-243.77670288085938,-1098.1065673828125,-43.50895690917969,144.0452423095703,-64.25354766845703
2353,1964,-167.0663299560547,-243.77670288085938,-1098.1065673828125,-43.50895690917969,144.0452423095703,-64.25354766845703
2365,1964,-167.0663299560547,-243.77670288085938,-1098.1065673828125,-43.50895690917969,144.0452423095703,-64.25354766845703
2385,1964,-167.0663299560547,-243.77670288085938,-1098.1065673828125,-43.50895690917969,144.0452423095703,-64.25354766845703
2454,1965,-198.41761779785156,-213.71878051757812,-1090.683837890625,-55.639530181884766,117.09935760498047,-96.9598159790039
2434,1965,-198.41761779785156,-213.71878051757812,-1090.683837890625,-55.639530181884766,117.09935760498047,-96.9598159790039
2421,1965,-198.41761779785156,-213.71878051757812,-1090.683837890625,-55.639530181884766,117.09935760498047,-96.9598159790039
2447,1965,-198.41761779785156,-213.71878051757812,-1090.683837890625,-55.639530181884766,117.09935760498047,-96.9598159790039
2385,1965,-198.41761779785156,-213.71878051757812,-1090.683837890625,-55.639530181884766,117.09935760498047,-96.9598159790039
2365,1965,-198.41761779785156,-213.71878051757812,-1090.683837890625,-55.639530181884766,117.09935760498047,-96.9598159790039
2352,1965,-198.41761779785156,-213.71878051757812,-1090.683837890625,-55.639530181884766,117.09935760498047,-96.9598159790039
2378,1965,-198.41761779785156,-213.71878051757812,-1090.683837890625,-55.639530181884766,117.09935760498047,-96.9598159790039
2447,1966,-233.76710510253906,-191.7584991455078,-1082.9754638671875,-46.95200729370117,88.64838409423828,-134.18624877929688
2421,1966,-233.76710510253906,-191.7584991455078,-1082.9754638671875,-46.95200729370117,88.64838409423828,-134.18624877929688
2420,1966,-233.76710510253906,-191.7584991455078,-1082.9754638671875,-46.95200729370117,88.64838409423828,-134.18624877929688
2448,1966,-233.76710510253906,-191.7584991455078,-1082.9754638671875,-46.95200729370117,88.64838409423828,-134.18624877929688
2378,1966,-233.76710510253906,-191.7584991455078,-1082.9754638671875,-46.95200729370117,88.64838409423828,-134.18624877929688
2352,1966,-233.76710510253906,-191.7584991455078,-1082.9754638671875,-46.95200729370117,88.64838409423828,-134.18624877929688
2351,1966,-233.76710510253906,-191.7584991455078,-1082.9754638671875,-46.95200729370117,88.64838409423828,-134.18624877929688
2379,1966,-233.76710510253906,-191.7584991455078,-1082.9754638671875,-46.95200729370117,88.64838409423828,-134.18624877929688
2448,1967,-256.6317138671875,-168.01071166992188,-1082.8253173828125,-26.710569381713867,37.39992141723633,-155.92662048339844
2420,1967,-256.6317138671875,-168.01071166992188,-1082.8253173828125,-26.710569381713867,37.39992141723633,-155.92662048339844
2433,1967,-256.6317138671875,-168.01071166992188,-1082.8253173828125,-26.710569381713867,37.39992141723633,-155.92662048339844
2453,1967,-256.6317138671875,-168.01071166992188,-1082.8253173828125,-26.710569381713867,37.39992141723633,-155.92662048339844
2379,1967,-256.6317138671875,-168.01071166992188,-1082.8253173828125,-26.710569381713867,37.39992141723633,-155.92662048339844
2351,1967,-256.6317138671875,-168.01071166992188,-1082.8253173828125,-26.710569381713867,37.39992141723633,-155.92662048339844
2364,1967,-256.6317138671875,-168.01071166992188,-1082.8253173828125,-26.710569381713867,37.39992141723633,-155.92662048339844
2384,1967,-256.6317138671875,-168.01071166992188,-1082.8253173828125,-26.710569381713867,37.39992141723633,-155.92662048339844
2453,1968,-262.61456298828125,-135.84828186035156,-1112.736083984375,0.7168096899986267,-5.449189186096191,-150.04798889160156
2433,1968,-262.61456298828125,-135.84828186035156,-1112.736083984375,0.7168096899986267,-5.449189186096191,-150.04798889160156
2419,1968,-262.61456298828125,-135.84828186035156,-1112.736083984375,0.7168096899986267,-5.449189186096191,-150.04798889160156
2449,1968,-262.61456298828125,-135.84828186035156,-1112.736083984375,0.7168096899986267,-5.449189186096191,-150.04798889160156
2384,1968,-262.61456298828125,-135.84828186035156,-1112.736083984375,0.7168096899986267,-5.449189186096191,-150.04798889160156
2364,1968,-262.61456298828125,-135.84828186035156,-1112.736083984375,0.7168096899986267,-5.449189186096191,-150.04798889160156
2350,1968,-262.61456298828125,-135.84828186035156,-1112.736083984375,0.7168096899986267,-5.449189186096191,-150.04798889160156
2380,1968,-262.61456298828125,-135.84828186035156,-1112.736083984375,0.7168096899986267,-5.449189186096191,-150.04798889160156
2473,1969,-238.39413452148438,-192.6601104736328,-1081.1021728515625,44.73771667480469,-79.82793426513672,-143.24911499023438
2418,1969,-238.39413452148438,-192.6601104736328,-1081.1021728515625,44.73771667480469,-79.82793426513672,-143.24911499023438
2417,1969,-238.39413452148438,-192.6601104736328,-1081.1021728515625,44.73771667480469,-79.82793426513672,-143.24911499023438
2474,1969,-238.39413452148438,-192.6601104736328,-1081.1021728515625,44.73771667480469,-79.82793426513672,-143.24911499023438
2404,1969,-238.39413452148438,-192.6601104736328,-1081.1021728515625,44.73771667480469,-79.82793426513672,-143.24911499023438
2349,1969,-238.39413452148438,-192.6601104736328,-1081.1021728515625,44.73771667480469,-79.82793426513672,-143.24911499023438
2348,1969,-238.39413452148438,-192.6601104736328,-1081.1021728515625,44.73771667480469,-79.82793426513672,-143.24911499023438
2405,1969,-238.39413452148438,-192.6601104736328,-1081.1021728515625,44.73771667480469,-79.82793426513672,-143.24911499023438
2452,1970,-181.92959594726562,-247.55838012695312,-1079.7310791015625,38.656028747558594,-143.9186553955078,-63.90220260620117
2432,1970,-181.92959594726562,-247.55838012695312,-1079.7310791015625,38.656028747558594,-143.9186553955078,-63.90220260620117
2416,1970,-181.92959594726562,-247.55838012695312,-1079.7310791015625,38.656028747558594,-143.9186553955078,-63.90220260620117
2451,1970,-181.92959594726562,-247.55838012695312,-1079.7310791015625,38.656028747558594,-143.9186553955078,-63.90220260620117
2383,1970,-181.92959594726562,-247.55838012695312,-1079.7310791015625,38.656028747558594,-143.9186553955078,-63.90220260620117
2363,1970,-181.92959594726562,-247.55838012695312,-1079.7310791015625,38.656028747558594,-143.9186553955078,-63.90220260620117
2347,1970,-181.92959594726562,-247.55838012695312,-1079.7310791015625,38.656028747558594,-143.9186553955078,-63.90220260620117
2382,1970,-181.92959594726562,-247.55838012695312,-1079.7310791015625,38.656028747558594,-143.9186553955078,-63.90220260620117
2475,1971,-261.6162414550781,-272.2273254394531,-917.37890625,-2.541796922683716,-162.41909790039062,-28.99615478515625
2451,1971,-261.6162414550781,-272.2273254394531,-917.37890625,-2.541796922683716,-162.41909790039062,-28.99615478515625
2443,1971,-261.6162414550781,-272.2273254394531,-917.37890625,-2.541796922683716,-162.41909790039062,-28.99615478515625
2458,1971,-261.6162414550781,-272.2273254394531,-917.37890625,-2.541796922683716,-162.41909790039062,-28.99615478515625
2406,1971,-261.6162414550781,-272.2273254394531,-917.37890625,-2.541796922683716,-162.41909790039062,-28.99615478515625
2382,1971,-261.6162414550781,-272.2273254394531,-917.37890625,-2.541796922683716,-162.41909790039062,-28.99615478515625
2374,1971,-261.6162414550781,-272.2273254394531,-917.37890625,-2.541796922683716,-162.41909790039062,-28.99615478515625
2389,1971,-261.6162414550781,-272.2273254394531,-917.37890625,-2.541796922683716,-162.41909790039062,-28.99615478515625
2474,1972,-274.66864013671875,-275.85369873046875,-912.0684814453125,-1.0171908140182495,-95.37194061279297,-104.31258392333984
2452,1972,-274.66864013671875,-275.85369873046875,-912.0684814453125,-1.0171908140182495,-95.37194061279297,-104.31258392333984
2464,1972,-274.66864013671875,-275.85369873046875,-912.0684814453125,-1.0171908140182495,-95.37194061279297,-104.31258392333984
2450,1972,-274.66864013671875,-275.85369873046875,-912.0684814453125,-1.0171908140182495,-95.37194061279297,-104.31258392333984
2405,1972,-274.66864013671875,-275.85369873046875,-912.0684814453125,-1.0171908140182495,-95.37194061279297,-104.31258392333984
2383,1972,-274.66864013671875,-275.85369873046875,-912.0684814453125,-1.0171908140182495,-95.37194061279297,-104.31258392333984
2395,1972,-274.66864013671875,-275.85369873046875,-912.0684814453125,-1.0171908140182495,-95.37194061279297,-104.31258392333984
2381,1972,-274.66864013671875,-275.85369873046875,-912.0684814453125,-1.0171908140182495,-95.37194061279297,-104.31258392333984
2449,1973,-254.8208465576172,-149.1450653076172,-1113.0723876953125,33.07058334350586,-35.05182647705078,-145.41720581054688
2419,1973,-254.8208465576172,-149.1450653076172,-1113.0723876953125,33.07058334350586,-35.05182647705078,-145.41720581054688
2418,1973,-254.8208465576172,-149.1450653076172,-1113.0723876953125,33.07058334350586,-35.05182647705078,-145.41720581054688
2473,1973,-254.8208465576172,-149.1450653076172,-1113.0723876953125,33.07058334350586,-35.05182647705078,-145.41720581054688
2380,1973,-254.8208465576172,-149.1450653076172,-1113.0723876953125,33.07058334350586,-35.05182647705078,-145.41720581054688
2350,1973,-254.8208465576172,-149.1450653076172,-1113.0723876953125,33.07058334350586,-35.05182647705078,-145.41720581054688
2349,1973,-254.8208465576172,-149.1450653076172,-1113.0723876953125,33.07058334350586,-35.05182647705078,-145.41720581054688
2404,1973,-254.8208465576172,-149.1450653076172,-1113.0723876953125,33.07058334350586,-35.05182647705078,-145.41720581054688
2458,1974,-265.6494140625,-272.63995361328125,-926.0756225585938,0.38352400064468384,-171.97592163085938,36.442562103271484
2443,1974,-265.6494140625,-272.63995361328125,-926.0756225585938,0.38352400064468384,-171.97592163085938,36.442562103271484
2440,1974,-265.6494140625,-272.63995361328125,-926.0756225585938,0.38352400064468384,-171.97592163085938,36.442562103271484
2484,1974,-265.6494140625,-272.63995361328125,-926.0756225585938,0.38352400064468384,-171.97592163085938,36.442562103271484
2389,1974,-265.6494140625,-272.63995361328125,-926.0756225585938,0.38352400064468384,-171.97592163085938,36.442562103271484
2374,1974,-265.6494140625,-272.63995361328125,-926.0756225585938,0.38352400064468384,-171.97592163085938,36.442562103271484
2371,1974,-265.6494140625,-272.63995361328125,-926.0756225585938,0.38352400064468384,-171.97592163085938,36.442562103271484
2415,1974,-265.6494140625,-272.63995361328125,-926.0756225585938,0.38352400064468384,-171.97592163085938,36.442562103271484
2469,1975,-280.7909851074219,-282.5192565917969,-933.2708129882812,-5.051112651824951,-58.61520767211914,33.81487274169922
2484,1975,-280.7909851074219,-282.5192565917969,-933.2708129882812,-5.051112651824951,-58.61520767211914,33.81487274169922
2460,1975,-280.7909851074219,-282.5192565917969,-933.2708129882812,-5.051112651824951,-58.61520767211914,33.81487274169922
2468,1975,-280.7909851074219,-282.5192565917969,-933.2708129882812,-5.051112651824951,-58.61520767211914,33.81487274169922
2400,1975,-280.7909851074219,-282.5192565917969,-933.2708129882812,-5.051112651824951,-58.61520767211914,33.81487274169922
2415,1975,-280.7909851074219,-282.5192565917969,-933.2708129882812,-5.051112651824951,-58.61520767211914,33.81487274169922
2391,1975,-280.7909851074219,-282.5192565917969,-933.2708129882812,-5.051112651824951,-58.61520767211914,33.81487274169922
2399,1975,-280.7909851074219,-282.5192565917969,-933.2708129882812,-5.051112651824951,-58.61520767211914,33.81487274169922
2439,1976,-272.3612060546875,-263.59307861328125,-933.1693725585938,-1.9567164182662964,-56.25929260253906,173.58522033691406
2456,1976,-272.3612060546875,-263.59307861328125,-933.1693725585938,-1.9567164182662964,-56.25929260253906,173.58522033691406
2478,1976,-272.3612060546875,-263.59307861328125,-933.1693725585938,-1.9567164182662964,-56.25929260253906,173.58522033691406
2463,1976,-272.3612060546875,-263.59307861328125,-933.1693725585938,-1.9567164182662964,-56.25929260253906,173.58522033691406
2370,1976,-272.3612060546875,-263.59307861328125,-933.1693725585938,-1.9567164182662964,-56.25929260253906,173.58522033691406
2387,1976,-272.3612060546875,-263.59307861328125,-933.1693725585938,-1.9567164182662964,-56.25929260253906,173.58522033691406
2409,1976,-272.3612060546875,-263.59307861328125,-933.1693725585938,-1.9567164182662964,-56.25929260253906,173.58522033691406
2394,1976,-272.3612060546875,-263.59307861328125,-933.1693725585938,-1.9567164182662964,-56.25929260253906,173.58522033691406
2463,1977,-281.3920593261719,-270.0397644042969,-938.2071533203125,-1.7087284326553345,-18.199588775634766,71.0386734008789
2478,1977,-281.3920593261719,-270.0397644042969,-938.2071533203125,-1.7087284326553345,-18.199588775634766,71.0386734008789
2462,1977,-281.3920593261719,-270.0397644042969,-938.2071533203125,-1.7087284326553345,-18.199588775634766,71.0386734008789
2468,1977,-281.3920593261719,-270.0397644042969,-938.2071533203125,-1.7087284326553345,-18.199588775634766,71.0386734008789
2394,1977,-281.3920593261719,-270.0397644042969,-938.2071533203125,-1.7087284326553345,-18.199588775634766,71.0386734008789
2409,1977,-281.3920593261719,-270.0397644042969,-938.2071533203125,-1.7087284326553345,-18.199588775634766,71.0386734008789
2393,1977,-281.3920593261719,-270.0397644042969,-938.2071533203125,-1.7087284326553345,-18.199588775634766,71.0386734008789
2399,1977,-281.3920593261719,-270.0397644042969,-938.2071533203125,-1.7087284326553345,-18.199588775634766,71.0386734008789
2465,1978,-268.8769226074219,-246.29977416992188,-933.8103637695312,1.7017995119094849,-25.687082290649414,-186.26353454589844
2453,1978,-268.8769226074219,-246.29977416992188,-933.8103637695312,1.7017995119094849,-25.687082290649414,-186.26353454589844
2449,1978,-268.8769226074219,-246.29977416992188,-933.8103637695312,1.7017995119094849,-25.687082290649414,-186.26353454589844
2473,1978,-268.8769226074219,-246.29977416992188,-933.8103637695312,1.7017995119094849,-25.687082290649414,-186.26353454589844
2396,1978,-268.8769226074219,-246.29977416992188,-933.8103637695312,1.7017995119094849,-25.687082290649414,-186.26353454589844
2384,1978,-268.8769226074219,-246.29977416992188,-933.8103637695312,1.7017995119094849,-25.687082290649414,-186.26353454589844
2380,1978,-268.8769226074219,-246.29977416992188,-933.8103637695312,1.7017995119094849,-25.687082290649414,-186.26353454589844
2404,1978,-268.8769226074219,-246.29977416992188,-933.8103637695312,1.7017995119094849,-25.687082290649414,-186.26353454589844
2463,1979,-280.728759765625,-278.46417236328125,-943.9583740234375,-4.1786112785339355,-40.084556579589844,73.52011108398438
2468,1979,-280.728759765625,-278.46417236328125,-943.9583740234375,-4.1786112785339355,-40.084556579589844,73.52011108398438
2460,1979,-280.728759765625,-278.46417236328125,-943.9583740234375,-4.1786112785339355,-40.084556579589844,73.52011108398438
2477,1979,-280.728759765625,-278.46417236328125,-943.9583740234375,-4.1786112785339355,-40.084556579589844,73.52011108398438
2394,1979,-280.728759765625,-278.46417236328125,-943.9583740234375,-4.1786112785339355,-40.084556579589844,73.52011108398438
2399,1979,-280.728759765625,-278.46417236328125,-943.9583740234375,-4.1786112785339355,-40.084556579589844,73.52011108398438
2391,1979,-280.728759765625,-278.46417236328125,-943.9583740234375,-4.1786112785339355,-40.084556579589844,73.52011108398438
2408,1979,-280.728759765625,-278.46417236328125,-943.9583740234375,-4.1786112785339355,-40.084556579589844,73.52011108398438
2441,1980,-270.38433837890625,-267.27490234375,-917.8148193359375,0.47888582944869995,44.40727615356445,149.84088134765625
2472,1980,-270.38433837890625,-267.27490234375,-917.8148193359375,0.47888582944869995,44.40727615356445,149.84088134765625
2479,1980,-270.38433837890625,-267.27490234375,-917.8148193359375,0.47888582944869995,44.40727615356445,149.84088134765625
2462,1980,-270.38433837890625,-267.27490234375,-917.8148193359375,0.47888582944869995,44.40727615356445,149.84088134765625
2372,1980,-270.38433837890625,-267.27490234375,-917.8148193359375,0.47888582944869995,44.40727615356445,149.84088134765625
2403,1980,-270.38433837890625,-267.27490234375,-917.8148193359375,0.47888582944869995,44.40727615356445,149.84088134765625
2410,1980,-270.38433837890625,-267.27490234375,-917.8148193359375,0.47888582944869995,44.40727615356445,149.84088134765625
2393,1980,-270.38433837890625,-267.27490234375,-917.8148193359375,0.47888582944869995,44.40727615356445,149.84088134765625
2483,1981,-286.0820617675781,-273.96160888671875,-945.0977783203125,1.560919165611267,-9.097232818603516,-66.7275619506836
2465,1981,-286.0820617675781,-273.96160888671875,-945.0977783203125,1.560919165611267,-9.097232818603516,-66.7275619506836
2450,1981,-286.0820617675781,-273.96160888671875,-945.0977783203125,1.560919165611267,-9.097232818603516,-66.7275619506836
2471,1981,-286.0820617675781,-273.96160888671875,-945.0977783203125,1.560919165611267,-9.097232818603516,-66.7275619506836
2414,1981,-286.0820617675781,-273.96160888671875,-945.0977783203125,1.560919165611267,-9.097232818603516,-66.7275619506836
2396,1981,-286.0820617675781,-273.96160888671875,-945.0977783203125,1.560919165611267,-9.097232818603516,-66.7275619506836
2381,1981,-286.0820617675781,-273.96160888671875,-945.0977783203125,1.560919165611267,-9.097232818603516,-66.7275619506836
2402,1981,-286.0820617675781,-273.96160888671875,-945.0977783203125,1.560919165611267,-9.097232818603516,-66.7275619506836
2459,1982,-268.49176025390625,-279.00335693359375,-938.5983276367188,-1.023561954498291,74.55538177490234,-9.406441688537598
2481,1982,-268.49176025390625,-279.00335693359375,-938.5983276367188,-1.023561954498291,74.55538177490234,-9.406441688537598
2466,1982,-268.49176025390625,-279.00335693359375,-938.5983276367188,-1.023561954498291,74.55538177490234,-9.406441688537598
2470,1982,-268.49176025390625,-279.00335693359375,-938.5983276367188,-1.023561954498291,74.55538177490234,-9.406441688537598
2390,1982,-268.49176025390625,-279.00335693359375,-938.5983276367188,-1.023561954498291,74.55538177490234,-9.406441688537598
2412,1982,-268.49176025390625,-279.00335693359375,-938.5983276367188,-1.023561954498291,74.55538177490234,-9.406441688537598
2397,1982,-268.49176025390625,-279.00335693359375,-938.5983276367188,-1.023561954498291,74.55538177490234,-9.406441688537598
2401,1982,-268.49176025390625,-279.00335693359375,-938.5983276367188,-1.023561954498291,74.55538177490234,-9.406441688537598
2482,1983,-267.7356872558594,-273.6054992675781,-929.9784545898438,-3.90511155128479,133.59164428710938,-118.10920715332031
2454,1983,-267.7356872558594,-273.6054992675781,-929.9784545898438,-3.90511155128479,133.59164428710938,-118.10920715332031
2447,1983,-267.7356872558594,-273.6054992675781,-929.9784545898438,-3.90511155128479,133.59164428710938,-118.10920715332031
2461,1983,-267.7356872558594,-273.6054992675781,-929.9784545898438,-3.90511155128479,133.59164428710938,-118.10920715332031
2413,1983,-267.7356872558594,-273.6054992675781,-929.9784545898438,-3.90511155128479,133.59164428710938,-118.10920715332031
2385,1983,-267.7356872558594,-273.6054992675781,-929.9784545898438,-3.90511155128479,133.59164428710938,-118.10920715332031
2378,1983,-267.7356872558594,-273.6054992675781,-929.9784545898438,-3.90511155128479,133.59164428710938,-118.10920715332031
2392,1983,-267.7356872558594,-273.6054992675781,-929.9784545898438,-3.90511155128479,133.59164428710938,-118.10920715332031
2471,1984,-284.0494384765625,-281.2177734375,-929.2461547851562,-6.18914270401001,38.287269592285156,-39.071868896484375
2470,1984,-284.0494384765625,-281.2177734375,-929.2461547851562,-6.18914270401001,38.287269592285156,-39.071868896484375
2461,1984,-284.0494384765625,-281.2177734375,-929.2461547851562,-6.18914270401001,38.287269592285156,-39.071868896484375
2483,1984,-284.0494384765625,-281.2177734375,-929.2461547851562,-6.18914270401001,38.287269592285156,-39.071868896484375
2402,1984,-284.0494384765625,-281.2177734375,-929.2461547851562,-6.18914270401001,38.287269592285156,-39.071868896484375
2401,1984,-284.0494384765625,-281.2177734375,-929.2461547851562,-6.18914270401001,38.287269592285156,-39.071868896484375
2392,1984,-284.0494384765625,-281.2177734375,-929.2461547851562,-6.18914270401001,38.287269592285156,-39.071868896484375
2414,1984,-284.0494384765625,-281.2177734375,-929.2461547851562,-6.18914270401001,38.287269592285156,-39.071868896484375
2471,1985,-285.6351318359375,-286.87255859375,-914.52978515625,-1.2310539484024048,-35.82701873779297,5.09535551071167
2476,1985,-285.6351318359375,-286.87255859375,-914.52978515625,-1.2310539484024048,-35.82701873779297,5.09535551071167
2469,1985,-285.6351318359375,-286.87255859375,-914.52978515625,-1.2310539484024048,-35.82701873779297,5.09535551071167
2468,1985,-285.6351318359375,-286.87255859375,-914.52978515625,-1.2310539484024048,-35.82701873779297,5.09535551071167
2402,1985,-285.6351318359375,-286.87255859375,-914.52978515625,-1.2310539484024048,-35.82701873779297,5.09535551071167
2407,1985,-285.6351318359375,-286.87255859375,-914.52978515625,-1.2310539484024048,-35.82701873779297,5.09535551071167
2400,1985,-285.6351318359375,-286.87255859375,-914.52978515625,-1.2310539484024048,-35.82701873779297,5.09535551071167
2399,1985,-285.6351318359375,-286.87255859375,-914.52978515625,-1.2310539484024048,-35.82701873779297,5.09535551071167
2461,1986,-274.7929382324219,-280.9644775390625,-945.1600952148438,-0.4931797683238983,83.9425277709961,-23.536972045898438
2470,1986,-274.7929382324219,-280.9644775390625,-945.1600952148438,-0.4931797683238983,83.9425277709961,-23.536972045898438
2466,1986,-274.7929382324219,-280.9644775390625,-945.1600952148438,-0.4931797683238983,83.9425277709961,-23.536972045898438
2482,1986,-274.7929382324219,-280.9644775390625,-945.1600952148438,-0.4931797683238983,83.9425277709961,-23.536972045898438
2392,1986,-274.7929382324219,-280.9644775390625,-945.1600952148438,-0.4931797683238983,83.9425277709961,-23.536972045898438
2401,1986,-274.7929382324219,-280.9644775390625,-945.1600952148438,-0.4931797683238983,83.9425277709961,-23.536972045898438
2397,1986,-274.7929382324219,-280.9644775390625,-945.1600952148438,-0.4931797683238983,83.9425277709961,-23.536972045898438
2413,1986,-274.7929382324219,-280.9644775390625,-945.1600952148438,-0.4931797683238983,83.9425277709961,-23.536972045898438
2472,1987,-231.74407958984375,-190.6190643310547,-1079.947265625,47.80281066894531,82.60177612304688,131.48609924316406
2426,1987,-231.74407958984375,-190.6190643310547,-1079.947265625,47.80281066894531,82.60177612304688,131.48609924316406
2425,1987,-231.74407958984375,-190.6190643310547,-1079.947265625,47.80281066894531,82.60177612304688,131.48609924316406
2442,1987,-231.74407958984375,-190.6190643310547,-1079.947265625,47.80281066894531,82.60177612304688,131.48609924316406
2403,1987,-231.74407958984375,-190.6190643310547,-1079.947265625,47.80281066894531,82.60177612304688,131.48609924316406
2357,1987,-231.74407958984375,-190.6190643310547,-1079.947265625,47.80281066894531,82.60177612304688,131.48609924316406
2356,1987,-231.74407958984375,-190.6190643310547,-1079.947265625,47.80281066894531,82.60177612304688,131.48609924316406
2373,1987,-231.74407958984375,-190.6190643310547,-1079.947265625,47.80281066894531,82.60177612304688,131.48609924316406
2474,1988,-212.44349670410156,-225.44996643066406,-1077.619140625,47.87807083129883,-121.1485366821289,-105.47582244873047
2417,1988,-212.44349670410156,-225.44996643066406,-1077.619140625,47.87807083129883,-121.1485366821289,-105.47582244873047
2432,1988,-212.44349670410156,-225.44996643066406,-1077.619140625,47.87807083129883,-121.1485366821289,-105.47582244873047
2452,1988,-212.44349670410156,-225.44996643066406,-1077.619140625,47.87807083129883,-121.1485366821289,-105.47582244873047
2405,1988,-212.44349670410156,-225.44996643066406,-1077.619140625,47.87807083129883,-121.1485366821289,-105.47582244873047
2348,1988,-212.44349670410156,-225.44996643066406,-1077.619140625,47.87807083129883,-121.1485366821289,-105.47582244873047
2363,1988,-212.44349670410156,-225.44996643066406,-1077.619140625,47.87807083129883,-121.1485366821289,-105.47582244873047
2383,1988,-212.44349670410156,-225.44996643066406,-1077.619140625,47.87807083129883,-121.1485366821289,-105.47582244873047
2451,1989,-275.8495788574219,-277.02783203125,-920.6456909179688,-0.47338569164276123,-142.7377471923828,-61.93657302856445
2475,1989,-275.8495788574219,-277.02783203125,-920.6456909179688,-0.47338569164276123,-142.7377471923828,-61.93657302856445
2464,1989,-275.8495788574219,-277.02783203125,-920.6456909179688,-0.47338569164276123,-142.7377471923828,-61.93657302856445
2452,1989,-275.8495788574219,-277.02783203125,-920.6456909179688,-0.47338569164276123,-142.7377471923828,-61.93657302856445
2382,1989,-275.8495788574219,-277.02783203125,-920.6456909179688,-0.47338569164276123,-142.7377471923828,-61.93657302856445
2406,1989,-275.8495788574219,-277.02783203125,-920.6456909179688,-0.47338569164276123,-142.7377471923828,-61.93657302856445
2395,1989,-275.8495788574219,-277.02783203125,-920.6456909179688,-0.47338569164276123,-142.7377471923828,-61.93657302856445
2383,1989,-275.8495788574219,-277.02783203125,-920.6456909179688,-0.47338569164276123,-142.7377471923828,-61.93657302856445
2475,1990,-273.8966064453125,-285.389404296875,-949.2488403320312,-1.363520860671997,-84.88658905029297,1.9688574075698853
2458,1990,-273.8966064453125,-285.389404296875,-949.2488403320312,-1.363520860671997,-84.88658905029297,1.9688574075698853
2484,1990,-273.8966064453125,-285.389404296875,-949.2488403320312,-1.363520860671997,-84.88658905029297,1.9688574075698853
2469,1990,-273.8966064453125,-285.389404296875,-949.2488403320312,-1.363520860671997,-84.88658905029297,1.9688574075698853
2406,1990,-273.8966064453125,-285.389404296875,-949.2488403320312,-1.363520860671997,-84.88658905029297,1.9688574075698853
2389,1990,-273.8966064453125,-285.389404296875,-949.2488403320312,-1.363520860671997,-84.88658905029297,1.9688574075698853
2415,1990,-273.8966064453125,-285.389404296875,-949.2488403320312,-1.363520860671997,-84.88658905029297,1.9688574075698853
2400,1990,-273.8966064453125,-285.389404296875,-949.2488403320312,-1.363520860671997,-84.88658905029297,1.9688574075698853
2477,1991,-264.4088134765625,-262.70068359375,-930.5140380859375,-5.419254302978516,-89.43927001953125,146.19871520996094
2438,1991,-264.4088134765625,-262.70068359375,-930.5140380859375,-5.419254302978516,-89.43927001953125,146.19871520996094
2439,1991,-264.4088134765625,-262.70068359375,-930.5140380859375,-5.419254302978516,-89.43927001953125,146.19871520996094
2463,1991,-264.4088134765625,-262.70068359375,-930.5140380859375,-5.419254302978516,-89.43927001953125,146.19871520996094
2408,1991,-264.4088134765625,-262.70068359375,-930.5140380859375,-5.419254302978516,-89.43927001953125,146.19871520996094
2369,1991,-264.4088134765625,-262.70068359375,-930.5140380859375,-5.419254302978516,-89.43927001953125,146.19871520996094
2370,1991,-264.4088134765625,-262.70068359375,-930.5140380859375,-5.419254302978516,-89.43927001953125,146.19871520996094
2394,1991,-264.4088134765625,-262.70068359375,-930.5140380859375,-5.419254302978516,-89.43927001953125,146.19871520996094
2478,1992,-272.7998962402344,-265.9283142089844,-929.5240478515625,-3.404473066329956,5.413930892944336,175.3515625
2456,1992,-272.7998962402344,-265.9283142089844,-929.5240478515625,-3.404473066329956,5.413930892944336,175.3515625
2441,1992,-272.7998962402344,-265.9283142089844,-929.5240478515625,-3.404473066329956,5.413930892944336,175.3515625
2462,1992,-272.7998962402344,-265.9283142089844,-929.5240478515625,-3.404473066329956,5.413930892944336,175.3515625
2409,1992,-272.7998962402344,-265.9283142089844,-929.5240478515625,-3.404473066329956,5.413930892944336,175.3515625
2387,1992,-272.7998962402344,-265.9283142089844,-929.5240478515625,-3.404473066329956,5.413930892944336,175.3515625
2372,1992,-272.7998962402344,-265.9283142089844,-929.5240478515625,-3.404473066329956,5.413930892944336,175.3515625
2393,1992,-272.7998962402344,-265.9283142089844,-929.5240478515625,-3.404473066329956,5.413930892944336,175.3515625
2480,1993,-266.6253356933594,-272.0498352050781,-921.5081787109375,0.7070951461791992,152.61874389648438,69.1467056274414
2455,1993,-266.6253356933594,-272.0498352050781,-921.5081787109375,0.7070951461791992,152.61874389648438,69.1467056274414
2444,1993,-266.6253356933594,-272.0498352050781,-921.5081787109375,0.7070951461791992,152.61874389648438,69.1467056274414
2459,1993,-266.6253356933594,-272.0498352050781,-921.5081787109375,0.7070951461791992,152.61874389648438,69.1467056274414
2411,1993,-266.6253356933594,-272.0498352050781,-921.5081787109375,0.7070951461791992,152.61874389648438,69.1467056274414
2386,1993,-266.6253356933594,-272.0498352050781,-921.5081787109375,0.7070951461791992,152.61874389648438,69.1467056274414
2375,1993,-266.6253356933594,-272.0498352050781,-921.5081787109375,0.7070951461791992,152.61874389648438,69.1467056274414
2390,1993,-266.6253356933594,-272.0498352050781,-921.5081787109375,0.7070951461791992,152.61874389648438,69.1467056274414
2481,1994,-261.2718200683594,-272.0426940917969,-936.0769653320312,-1.0166103839874268,186.4495086669922,-30.259178161621094
2445,1994,-261.2718200683594,-272.0426940917969,-936.0769653320312,-1.0166103839874268,186.4495086669922,-30.259178161621094
2446,1994,-261.2718200683594,-272.0426940917969,-936.0769653320312,-1.0166103839874268,186.4495086669922,-30.259178161621094
2466,1994,-261.2718200683594,-272.0426940917969,-936.0769653320312,-1.0166103839874268,186.4495086669922,-30.259178161621094
2412,1994,-261.2718200683594,-272.0426940917969,-936.0769653320312,-1.0166103839874268,186.4495086669922,-30.259178161621094
2376,1994,-261.2718200683594,-272.0426940917969,-936.0769653320312,-1.0166103839874268,186.4495086669922,-30.259178161621094
2377,1994,-261.2718200683594,-272.0426940917969,-936.0769653320312,-1.0166103839874268,186.4495086669922,-30.259178161621094
2397,1994,-261.2718200683594,-272.0426940917969,-936.0769653320312,-1.0166103839874268,186.4495086669922,-30.259178161621094
2483,1995,-276.09649658203125,-268.33050537109375,-932.0890502929688,3.775308847427368,44.666526794433594,-144.2508544921875
2448,1995,-276.09649658203125,-268.33050537109375,-932.0890502929688,3.775308847427368,44.666526794433594,-144.2508544921875
2453,1995,-276.09649658203125,-268.33050537109375,-932.0890502929688,3.775308847427368,44.666526794433594,-144.2508544921875
2465,1995,-276.09649658203125,-268.33050537109375,-932.0890502929688,3.775308847427368,44.666526794433594,-144.2508544921875
2414,1995,-276.09649658203125,-268.33050537109375,-932.0890502929688,3.775308847427368,44.666526794433594,-144.2508544921875
2379,1995,-276.09649658203125,-268.33050537109375,-932.0890502929688,3.775308847427368,44.666526794433594,-144.2508544921875
2384,1995,-276.09649658203125,-268.33050537109375,-932.0890502929688,3.775308847427368,44.666526794433594,-144.2508544921875
2396,1995,-276.09649658203125,-268.33050537109375,-932.0890502929688,3.775308847427368,44.666526794433594,-144.2508544921875
